pymatgen generated KPOINTS with grid density = 405 / atom
0
Monkhorst
2 2 2
