Cs8 In4 Ag2 Au2 I24
1.0
12.006862 0.000000 0.000000
-0.000000 12.006862 0.000000
0.000000 0.000000 12.006862
Cs In Ag Au I
8 4 2 2 24
direct
0.750000 0.750000 0.750000 Cs
0.250000 0.250000 0.250000 Cs
0.750000 0.250000 0.250000 Cs
0.250000 0.750000 0.750000 Cs
0.250000 0.750000 0.250000 Cs
0.750000 0.250000 0.750000 Cs
0.250000 0.250000 0.750000 Cs
0.750000 0.750000 0.250000 Cs
0.000000 0.000000 0.000000 In
1.000000 0.500000 0.500000 In
0.500000 0.000000 0.500000 In
0.500000 0.500000 1.000000 In
0.000000 0.000000 0.500000 Ag
1.000000 0.500000 1.000000 Ag
0.500000 0.000000 1.000000 Au
0.500000 0.500000 0.500000 Au
0.252042 0.000000 1.000000 I
0.500000 0.000000 0.752042 I
0.747958 0.000000 1.000000 I
0.500000 0.752042 1.000000 I
0.500000 0.247958 1.000000 I
0.500000 0.000000 0.247958 I
0.252042 0.500000 0.500000 I
0.500000 0.500000 0.252042 I
0.747958 0.500000 0.500000 I
0.500000 0.252042 0.500000 I
0.500000 0.747958 0.500000 I
0.500000 0.500000 0.747958 I
0.752042 0.000000 0.500000 I
0.000000 0.000000 0.252042 I
0.247958 0.000000 0.500000 I
0.000000 0.752042 0.500000 I
1.000000 0.247958 0.500000 I
0.000000 0.000000 0.747958 I
0.752042 0.500000 1.000000 I
1.000000 0.500000 0.752042 I
0.247958 0.500000 0.000000 I
1.000000 0.252042 0.000000 I
0.000000 0.747958 1.000000 I
1.000000 0.500000 0.247958 I
