Cs8 Tl4 In4 Br18 Cl6
1.0
11.656854 0.000000 0.000000
-0.000000 11.656854 0.000000
0.000000 0.000000 11.656854
Cs Tl In Br Cl
8 4 4 18 6
direct
0.250000 0.250000 0.250000 Cs
0.750000 0.750000 0.750000 Cs
0.250000 0.750000 0.750000 Cs
0.750000 0.250000 0.250000 Cs
0.750000 0.250000 0.750000 Cs
0.250000 0.750000 0.250000 Cs
0.750000 0.750000 0.250000 Cs
0.250000 0.250000 0.750000 Cs
1.000000 0.500000 0.500000 Tl
0.000000 0.000000 0.000000 Tl
0.500000 0.500000 0.000000 Tl
0.500000 0.000000 0.500000 Tl
0.500000 0.500000 0.500000 In
0.500000 0.000000 0.000000 In
1.000000 0.500000 0.000000 In
0.000000 0.000000 0.500000 In
0.730622 0.500000 0.500000 Br
1.000000 0.500000 0.230622 Br
1.000000 0.230622 0.500000 Br
1.000000 0.769378 0.500000 Br
1.000000 0.500000 0.769378 Br
0.730622 0.000000 0.000000 Br
0.000000 0.000000 0.730622 Br
0.269378 0.000000 0.000000 Br
1.000000 0.730622 0.000000 Br
0.000000 0.000000 0.269378 Br
0.230622 0.500000 0.000000 Br
0.500000 0.500000 0.730622 Br
0.769378 0.500000 0.000000 Br
0.500000 0.769378 0.000000 Br
0.500000 0.500000 0.269378 Br
0.769378 0.000000 0.500000 Br
0.500000 0.730622 0.500000 Br
0.500000 0.000000 0.769378 Br
0.269378 0.500000 0.500000 Cl
1.000000 0.269378 0.000000 Cl
0.500000 0.230622 1.000000 Cl
0.230622 0.000000 0.500000 Cl
0.500000 0.000000 0.230622 Cl
0.500000 0.269378 0.500000 Cl
