Cs8 Sc4 Tl1 Cu3 Cl24
1.0
10.351474 0.000000 0.000000
-0.000000 10.351474 0.000000
0.000000 0.000000 10.351474
Cs Sc Tl Cu Cl
8 4 1 3 24
direct
0.750000 0.750000 0.750000 Cs
0.250000 0.250000 0.250000 Cs
0.750000 0.250000 0.250000 Cs
0.250000 0.750000 0.750000 Cs
0.250000 0.750000 0.250000 Cs
0.750000 0.250000 0.750000 Cs
0.250000 0.250000 0.750000 Cs
0.750000 0.750000 0.250000 Cs
0.000000 0.000000 0.000000 Sc
1.000000 0.500000 0.500000 Sc
0.500000 0.000000 0.500000 Sc
0.500000 0.500000 1.000000 Sc
1.000000 0.500000 1.000000 Tl
0.500000 0.000000 1.000000 Cu
0.500000 0.500000 0.500000 Cu
0.000000 0.000000 0.500000 Cu
0.223625 0.000000 1.000000 Cl
0.500000 0.000000 0.723625 Cl
0.776375 0.000000 0.000000 Cl
0.500000 0.723625 0.000000 Cl
0.500000 0.276375 1.000000 Cl
0.500000 0.000000 0.276375 Cl
0.223625 0.500000 0.500000 Cl
0.500000 0.500000 0.223625 Cl
0.776375 0.500000 0.500000 Cl
0.500000 0.223625 0.500000 Cl
0.500000 0.776375 0.500000 Cl
0.500000 0.500000 0.776375 Cl
0.723625 0.000000 0.500000 Cl
0.000000 0.000000 0.223625 Cl
0.276375 0.000000 0.500000 Cl
1.000000 0.723625 0.500000 Cl
0.000000 0.276375 0.500000 Cl
0.000000 0.000000 0.776375 Cl
0.723625 0.500000 0.000000 Cl
1.000000 0.500000 0.723625 Cl
0.276375 0.500000 0.000000 Cl
1.000000 0.223625 0.000000 Cl
1.000000 0.776375 0.000000 Cl
1.000000 0.500000 0.276375 Cl
