Cs8 Tl4 Ag4 Br7 Cl17
1.0
10.929864 0.000000 0.000000
-0.000000 10.929864 0.000000
0.000000 0.000000 10.929864
Cs Tl Ag Br Cl
8 4 4 7 17
direct
0.750000 0.750000 0.750000 Cs
0.250000 0.250000 0.250000 Cs
0.750000 0.250000 0.250000 Cs
0.250000 0.750000 0.750000 Cs
0.250000 0.750000 0.250000 Cs
0.750000 0.250000 0.750000 Cs
0.250000 0.250000 0.750000 Cs
0.750000 0.750000 0.250000 Cs
0.000000 0.000000 0.000000 Tl
0.000000 0.500000 0.500000 Tl
0.500000 0.000000 0.500000 Tl
0.500000 0.500000 0.000000 Tl
0.500000 0.000000 0.000000 Ag
0.500000 0.500000 0.500000 Ag
0.000000 0.000000 0.500000 Ag
0.000000 0.500000 0.000000 Ag
0.251926 0.000000 1.000000 Br
0.500000 0.000000 0.751926 Br
0.500000 0.248074 0.000000 Br
0.500000 0.000000 0.248074 Br
0.251926 0.500000 0.500000 Br
0.500000 0.500000 0.251926 Br
0.000000 0.500000 0.248074 Br
0.748074 0.000000 0.000000 Cl
0.500000 0.751926 0.000000 Cl
0.748074 0.500000 0.500000 Cl
0.500000 0.251926 0.500000 Cl
0.500000 0.748074 0.500000 Cl
0.500000 0.500000 0.748074 Cl
0.751926 0.000000 0.500000 Cl
0.000000 0.000000 0.251926 Cl
0.248074 0.000000 0.500000 Cl
1.000000 0.751926 0.500000 Cl
1.000000 0.248074 0.500000 Cl
0.000000 0.000000 0.748074 Cl
0.751926 0.500000 1.000000 Cl
0.000000 0.500000 0.751926 Cl
0.248074 0.500000 0.000000 Cl
0.000000 0.251926 1.000000 Cl
1.000000 0.748074 0.000000 Cl
