Cs8 In3 Ag1 Bi4 I24
1.0
12.687084 0.000000 0.000000
-0.000000 12.687084 0.000000
0.000000 0.000000 12.687084
Cs In Ag Bi I
8 3 1 4 24
direct
0.750000 0.750000 0.750000 Cs
0.750000 0.750000 0.250000 Cs
0.750000 0.250000 0.250000 Cs
0.750000 0.250000 0.750000 Cs
0.250000 0.750000 0.250000 Cs
0.250000 0.750000 0.750000 Cs
0.250000 0.250000 0.750000 Cs
0.250000 0.250000 0.250000 Cs
1.000000 0.500000 0.500000 In
0.000000 0.000000 0.000000 In
0.500000 0.000000 0.500000 In
0.500000 0.500000 1.000000 Ag
0.500000 0.500000 0.500000 Bi
0.500000 0.000000 1.000000 Bi
1.000000 0.500000 0.000000 Bi
0.000000 0.000000 0.500000 Bi
1.000000 0.500000 0.253060 I
0.246940 0.500000 0.500000 I
1.000000 0.500000 0.746940 I
0.500000 0.753060 0.500000 I
1.000000 0.746940 0.500000 I
0.753060 0.500000 0.500000 I
0.000000 0.000000 0.753060 I
0.246940 0.000000 0.000000 I
0.000000 0.000000 0.246940 I
0.500000 0.253060 0.000000 I
0.000000 0.246940 0.000000 I
0.753060 0.000000 0.000000 I
0.500000 0.500000 0.753060 I
0.746940 0.500000 0.000000 I
0.500000 0.500000 0.246940 I
1.000000 0.753060 0.000000 I
0.500000 0.746940 0.000000 I
0.253060 0.500000 0.000000 I
0.500000 0.000000 0.253060 I
0.746940 0.000000 0.500000 I
0.500000 0.000000 0.746940 I
1.000000 0.253060 0.500000 I
0.500000 0.246940 0.500000 I
0.253060 0.000000 0.500000 I
