Cs8 Tl4 Bi3 Sb1 Br24
1.0
12.091691 0.000000 0.000000
-0.000000 12.091691 0.000000
0.000000 0.000000 12.091691
Cs Tl Bi Sb Br
8 4 3 1 24
direct
0.750000 0.250000 0.250000 Cs
0.250000 0.750000 0.750000 Cs
0.750000 0.750000 0.750000 Cs
0.250000 0.250000 0.250000 Cs
0.250000 0.250000 0.750000 Cs
0.750000 0.750000 0.250000 Cs
0.250000 0.750000 0.250000 Cs
0.750000 0.250000 0.750000 Cs
0.500000 0.500000 0.500000 Tl
0.500000 0.000000 1.000000 Tl
0.000000 0.500000 1.000000 Tl
0.000000 0.000000 0.500000 Tl
0.000000 0.500000 0.500000 Bi
0.500000 0.500000 1.000000 Bi
0.500000 0.000000 0.500000 Bi
0.000000 0.000000 0.000000 Sb
0.235524 0.500000 0.500000 Br
0.500000 0.500000 0.235524 Br
0.764476 0.500000 0.500000 Br
0.500000 0.235524 0.500000 Br
0.500000 0.764476 0.500000 Br
0.500000 0.500000 0.764476 Br
0.235524 0.000000 1.000000 Br
0.500000 0.000000 0.735524 Br
0.764476 0.000000 1.000000 Br
0.500000 0.735524 1.000000 Br
0.500000 0.264476 1.000000 Br
0.500000 0.000000 0.264476 Br
0.735524 0.500000 1.000000 Br
0.000000 0.500000 0.735524 Br
0.264476 0.500000 1.000000 Br
0.000000 0.235524 0.000000 Br
0.000000 0.764476 1.000000 Br
0.000000 0.500000 0.264476 Br
0.735524 0.000000 0.500000 Br
0.000000 0.000000 0.235524 Br
0.264476 0.000000 0.500000 Br
0.000000 0.735524 0.500000 Br
0.000000 0.264476 0.500000 Br
0.000000 0.000000 0.764476 Br
