pymatgen generated KPOINTS with grid density = 430 / atom
0
Monkhorst
2 2 2
