Cs8 Ag4 Sb1 As3 Br24
1.0
11.118866 0.000000 0.000000
-0.000000 11.118866 0.000000
0.000000 0.000000 11.118866
Cs Ag Sb As Br
8 4 1 3 24
direct
0.750000 0.750000 0.750000 Cs
0.250000 0.250000 0.250000 Cs
0.750000 0.250000 0.250000 Cs
0.250000 0.750000 0.750000 Cs
0.250000 0.750000 0.250000 Cs
0.750000 0.250000 0.750000 Cs
0.250000 0.250000 0.750000 Cs
0.750000 0.750000 0.250000 Cs
0.500000 0.000000 0.000000 Ag
0.500000 0.500000 0.500000 Ag
0.000000 0.000000 0.500000 Ag
1.000000 0.500000 0.000000 Ag
0.000000 0.000000 0.000000 Sb
1.000000 0.500000 0.500000 As
0.500000 0.000000 0.500000 As
0.500000 0.500000 0.000000 As
0.248446 0.000000 0.000000 Br
0.500000 0.000000 0.748446 Br
0.751554 0.000000 0.000000 Br
0.500000 0.748446 0.000000 Br
0.500000 0.251554 0.000000 Br
0.500000 0.000000 0.251554 Br
0.248446 0.500000 0.500000 Br
0.500000 0.500000 0.248446 Br
0.751554 0.500000 0.500000 Br
0.500000 0.248446 0.500000 Br
0.500000 0.751554 0.500000 Br
0.500000 0.500000 0.751554 Br
0.748446 0.000000 0.500000 Br
0.000000 0.000000 0.248446 Br
0.251554 0.000000 0.500000 Br
1.000000 0.748446 0.500000 Br
1.000000 0.251554 0.500000 Br
0.000000 0.000000 0.751554 Br
0.748446 0.500000 0.000000 Br
1.000000 0.500000 0.748446 Br
0.251554 0.500000 0.000000 Br
1.000000 0.248446 0.000000 Br
1.000000 0.751554 0.000000 Br
1.000000 0.500000 0.251554 Br
