Cs8 In4 Ag4 I7 Br17
1.0
11.456614 0.000000 0.000000
-0.000000 11.456614 0.000000
0.000000 0.000000 11.456614
Cs In Ag I Br
8 4 4 7 17
direct
0.750000 0.750000 0.750000 Cs
0.250000 0.250000 0.250000 Cs
0.750000 0.250000 0.250000 Cs
0.250000 0.750000 0.750000 Cs
0.250000 0.750000 0.250000 Cs
0.750000 0.250000 0.750000 Cs
0.250000 0.250000 0.750000 Cs
0.750000 0.750000 0.250000 Cs
0.000000 0.000000 0.000000 In
0.000000 0.500000 0.500000 In
0.500000 0.000000 0.500000 In
0.500000 0.500000 0.000000 In
0.500000 0.000000 0.000000 Ag
0.500000 0.500000 0.500000 Ag
0.000000 0.000000 0.500000 Ag
0.000000 0.500000 0.000000 Ag
0.500000 0.748032 0.000000 I
0.248032 0.500000 0.500000 I
0.500000 0.500000 0.248032 I
0.000000 0.000000 0.248032 I
0.000000 0.748032 0.500000 I
0.000000 0.251968 0.500000 I
0.000000 0.500000 0.748032 I
0.248032 0.000000 0.000000 Br
0.500000 0.000000 0.748032 Br
0.751968 0.000000 0.000000 Br
0.500000 0.251968 0.000000 Br
0.500000 0.000000 0.251968 Br
0.751968 0.500000 0.500000 Br
0.500000 0.248032 0.500000 Br
0.500000 0.751968 0.500000 Br
0.500000 0.500000 0.751968 Br
0.748032 0.000000 0.500000 Br
0.251968 0.000000 0.500000 Br
0.000000 0.000000 0.751968 Br
0.748032 0.500000 0.000000 Br
0.251968 0.500000 0.000000 Br
0.000000 0.248032 1.000000 Br
1.000000 0.751968 0.000000 Br
0.000000 0.500000 0.251968 Br
