Cs8 Cu1 Ag3 Bi4 Br24
1.0
11.473061 0.000000 0.000000
-0.000000 11.473061 0.000000
0.000000 0.000000 11.473061
Cs Cu Ag Bi Br
8 1 3 4 24
direct
0.250000 0.250000 0.250000 Cs
0.250000 0.250000 0.750000 Cs
0.250000 0.750000 0.750000 Cs
0.250000 0.750000 0.250000 Cs
0.750000 0.250000 0.750000 Cs
0.750000 0.250000 0.250000 Cs
0.750000 0.750000 0.250000 Cs
0.750000 0.750000 0.750000 Cs
0.500000 0.500000 0.500000 Cu
0.500000 0.000000 0.000000 Ag
0.000000 0.000000 0.500000 Ag
1.000000 0.500000 0.000000 Ag
0.000000 0.000000 0.000000 Bi
1.000000 0.500000 0.500000 Bi
0.500000 0.000000 0.500000 Bi
0.500000 0.500000 0.000000 Bi
0.500000 0.000000 0.759723 Br
0.259723 0.000000 0.000000 Br
0.500000 0.000000 0.240277 Br
0.500000 0.240277 0.000000 Br
1.000000 0.259723 0.000000 Br
0.740277 0.000000 0.000000 Br
0.500000 0.500000 0.259723 Br
0.259723 0.500000 0.500000 Br
0.500000 0.500000 0.740277 Br
0.500000 0.740277 0.500000 Br
1.000000 0.759723 0.500000 Br
0.740277 0.500000 0.500000 Br
0.000000 0.000000 0.259723 Br
0.759723 0.000000 0.500000 Br
0.000000 0.000000 0.740277 Br
1.000000 0.240277 0.500000 Br
0.500000 0.259723 0.500000 Br
0.240277 0.000000 0.500000 Br
1.000000 0.500000 0.759723 Br
0.759723 0.500000 0.000000 Br
1.000000 0.500000 0.240277 Br
0.000000 0.740277 0.000000 Br
0.500000 0.759723 0.000000 Br
0.240277 0.500000 0.000000 Br
