Cs8 Tl1 In3 Cu4 Br24
1.0
10.942470 0.000000 0.000000
-0.000000 10.942470 0.000000
0.000000 0.000000 10.942470
Cs Tl In Cu Br
8 1 3 4 24
direct
0.750000 0.750000 0.750000 Cs
0.250000 0.250000 0.250000 Cs
0.750000 0.250000 0.250000 Cs
0.250000 0.750000 0.750000 Cs
0.250000 0.750000 0.250000 Cs
0.750000 0.250000 0.750000 Cs
0.250000 0.250000 0.750000 Cs
0.750000 0.750000 0.250000 Cs
0.000000 0.500000 0.500000 Tl
0.000000 0.000000 0.000000 In
0.500000 0.000000 0.500000 In
0.500000 0.500000 1.000000 In
0.500000 0.000000 1.000000 Cu
0.500000 0.500000 0.500000 Cu
0.000000 0.000000 0.500000 Cu
0.000000 0.500000 1.000000 Cu
0.263140 0.000000 1.000000 Br
0.500000 0.000000 0.763140 Br
0.736860 0.000000 1.000000 Br
0.500000 0.763140 0.000000 Br
0.500000 0.236860 1.000000 Br
0.500000 0.000000 0.236860 Br
0.263140 0.500000 0.500000 Br
0.500000 0.500000 0.263140 Br
0.736860 0.500000 0.500000 Br
0.500000 0.263140 0.500000 Br
0.500000 0.736860 0.500000 Br
0.500000 0.500000 0.736860 Br
0.763140 0.000000 0.500000 Br
0.000000 0.000000 0.263140 Br
0.236860 0.000000 0.500000 Br
1.000000 0.763140 0.500000 Br
1.000000 0.236860 0.500000 Br
0.000000 0.000000 0.736860 Br
0.763140 0.500000 1.000000 Br
0.000000 0.500000 0.763140 Br
0.236860 0.500000 1.000000 Br
0.000000 0.263140 1.000000 Br
0.000000 0.736860 1.000000 Br
0.000000 0.500000 0.236860 Br
