Cs8 Ag4 Bi4 I7 Br17
1.0
11.708861 0.000000 0.000000
-0.000000 11.708861 0.000000
0.000000 0.000000 11.708861
Cs Ag Bi I Br
8 4 4 7 17
direct
0.250000 0.250000 0.250000 Cs
0.250000 0.250000 0.750000 Cs
0.250000 0.750000 0.750000 Cs
0.250000 0.750000 0.250000 Cs
0.750000 0.250000 0.750000 Cs
0.750000 0.250000 0.250000 Cs
0.750000 0.750000 0.250000 Cs
0.750000 0.750000 0.750000 Cs
1.000000 0.500000 1.000000 Ag
0.000000 0.000000 0.500000 Ag
0.500000 0.500000 0.500000 Ag
0.500000 0.000000 1.000000 Ag
0.000000 0.000000 0.000000 Bi
1.000000 0.500000 0.500000 Bi
0.500000 0.000000 0.500000 Bi
0.500000 0.500000 1.000000 Bi
0.500000 0.000000 0.753060 I
0.253060 0.000000 0.000000 I
0.753060 0.000000 0.500000 I
1.000000 0.500000 0.753060 I
0.246940 0.500000 1.000000 I
1.000000 0.746940 0.000000 I
0.753060 0.500000 0.000000 I
0.746940 0.000000 0.000000 Br
0.500000 0.000000 0.246940 Br
1.000000 0.253060 0.000000 Br
0.500000 0.246940 0.000000 Br
0.500000 0.500000 0.253060 Br
0.746940 0.500000 0.500000 Br
0.500000 0.500000 0.746940 Br
0.000000 0.753060 0.500000 Br
0.500000 0.746940 0.500000 Br
0.253060 0.500000 0.500000 Br
0.000000 0.000000 0.253060 Br
0.246940 0.000000 0.500000 Br
0.000000 0.000000 0.746940 Br
0.500000 0.253060 0.500000 Br
1.000000 0.246940 0.500000 Br
1.000000 0.500000 0.246940 Br
0.500000 0.753060 0.000000 Br
