Cs8 Tl4 Ga1 As3 Cl24
1.0
11.098235 0.000000 0.000000
-0.000000 11.098235 0.000000
0.000000 0.000000 11.098235
Cs Tl Ga As Cl
8 4 1 3 24
direct
0.250000 0.750000 0.250000 Cs
0.750000 0.250000 0.750000 Cs
0.250000 0.250000 0.750000 Cs
0.750000 0.750000 0.250000 Cs
0.750000 0.750000 0.750000 Cs
0.250000 0.250000 0.250000 Cs
0.750000 0.250000 0.250000 Cs
0.250000 0.750000 0.750000 Cs
0.000000 0.000000 0.500000 Tl
1.000000 0.500000 1.000000 Tl
0.500000 0.000000 1.000000 Tl
0.500000 0.500000 0.500000 Tl
0.000000 0.000000 0.000000 Ga
0.500000 0.000000 0.500000 As
0.500000 0.500000 1.000000 As
1.000000 0.500000 0.500000 As
0.726076 0.000000 0.500000 Cl
0.000000 0.000000 0.226076 Cl
0.273924 0.000000 0.500000 Cl
1.000000 0.726076 0.500000 Cl
0.000000 0.273924 0.500000 Cl
0.000000 0.000000 0.773924 Cl
0.726076 0.500000 0.000000 Cl
1.000000 0.500000 0.726076 Cl
0.273924 0.500000 1.000000 Cl
1.000000 0.226076 0.000000 Cl
0.000000 0.773924 1.000000 Cl
1.000000 0.500000 0.273924 Cl
0.226076 0.000000 0.000000 Cl
0.500000 0.000000 0.726076 Cl
0.773924 0.000000 1.000000 Cl
0.500000 0.726076 0.000000 Cl
0.500000 0.273924 1.000000 Cl
0.500000 0.000000 0.273924 Cl
0.226076 0.500000 0.500000 Cl
0.500000 0.500000 0.226076 Cl
0.773924 0.500000 0.500000 Cl
0.500000 0.226076 0.500000 Cl
0.500000 0.773924 0.500000 Cl
0.500000 0.500000 0.773924 Cl
