Cs8 Tl3 In4 Ga1 I24
1.0
12.498967 0.000000 0.000000
-0.000000 12.498967 0.000000
0.000000 0.000000 12.498967
Cs Tl In Ga I
8 3 4 1 24
direct
0.750000 0.750000 0.750000 Cs
0.250000 0.250000 0.250000 Cs
0.750000 0.250000 0.250000 Cs
0.250000 0.750000 0.750000 Cs
0.250000 0.750000 0.250000 Cs
0.750000 0.250000 0.750000 Cs
0.250000 0.250000 0.750000 Cs
0.750000 0.750000 0.250000 Cs
0.500000 0.000000 1.000000 Tl
0.500000 0.500000 0.500000 Tl
0.000000 0.500000 1.000000 Tl
0.000000 0.000000 0.000000 In
0.000000 0.500000 0.500000 In
0.500000 0.000000 0.500000 In
0.500000 0.500000 1.000000 In
0.000000 0.000000 0.500000 Ga
0.234798 0.000000 0.000000 I
0.500000 0.000000 0.734798 I
0.765202 0.000000 1.000000 I
0.500000 0.734798 0.000000 I
0.500000 0.265202 1.000000 I
0.500000 0.000000 0.265202 I
0.234798 0.500000 0.500000 I
0.500000 0.500000 0.234798 I
0.765202 0.500000 0.500000 I
0.500000 0.234798 0.500000 I
0.500000 0.765202 0.500000 I
0.500000 0.500000 0.765202 I
0.734798 0.000000 0.500000 I
0.000000 0.000000 0.234798 I
0.265202 0.000000 0.500000 I
0.000000 0.734798 0.500000 I
0.000000 0.265202 0.500000 I
0.000000 0.000000 0.765202 I
0.734798 0.500000 0.000000 I
0.000000 0.500000 0.734798 I
0.265202 0.500000 1.000000 I
0.000000 0.234798 0.000000 I
0.000000 0.765202 1.000000 I
0.000000 0.500000 0.265202 I
