pymatgen generated KPOINTS with grid density = 285 / atom
0
Monkhorst
2 2 2
