Cs8 In4 Ga4 I18 Br6
1.0
12.022583 0.000000 0.000000
-0.000000 12.022583 0.000000
0.000000 0.000000 12.022583
Cs In Ga I Br
8 4 4 18 6
direct
0.250000 0.250000 0.250000 Cs
0.750000 0.750000 0.750000 Cs
0.250000 0.750000 0.750000 Cs
0.750000 0.250000 0.250000 Cs
0.750000 0.250000 0.750000 Cs
0.250000 0.750000 0.250000 Cs
0.750000 0.750000 0.250000 Cs
0.250000 0.250000 0.750000 Cs
0.000000 0.500000 0.500000 In
0.000000 0.000000 0.000000 In
0.500000 0.500000 0.000000 In
0.500000 0.000000 0.500000 In
0.500000 0.500000 0.500000 Ga
0.500000 0.000000 0.000000 Ga
0.000000 0.500000 0.000000 Ga
0.000000 0.000000 0.500000 Ga
0.756292 0.500000 0.500000 I
0.000000 0.500000 0.256292 I
0.243708 0.500000 0.500000 I
1.000000 0.256292 0.500000 I
0.000000 0.500000 0.743708 I
0.756292 0.000000 0.000000 I
0.000000 0.000000 0.756292 I
0.243708 0.000000 0.000000 I
1.000000 0.756292 0.000000 I
0.000000 0.000000 0.243708 I
0.256292 0.500000 0.000000 I
0.743708 0.500000 1.000000 I
0.500000 0.743708 1.000000 I
0.500000 0.500000 0.243708 I
0.500000 0.000000 0.256292 I
0.743708 0.000000 0.500000 I
0.500000 0.756292 0.500000 I
0.500000 0.243708 0.500000 I
1.000000 0.743708 0.500000 Br
0.000000 0.243708 0.000000 Br
0.500000 0.500000 0.756292 Br
0.500000 0.256292 1.000000 Br
0.256292 0.000000 0.500000 Br
0.500000 0.000000 0.743708 Br
