Cs8 In4 Ga2 Sb2 I24
1.0
12.405270 0.000000 0.000000
-0.000000 12.405270 0.000000
0.000000 0.000000 12.405270
Cs In Ga Sb I
8 4 2 2 24
direct
0.750000 0.250000 0.250000 Cs
0.250000 0.750000 0.750000 Cs
0.750000 0.750000 0.750000 Cs
0.250000 0.250000 0.250000 Cs
0.250000 0.250000 0.750000 Cs
0.750000 0.750000 0.250000 Cs
0.250000 0.750000 0.250000 Cs
0.750000 0.250000 0.750000 Cs
0.500000 0.500000 0.500000 In
0.500000 0.000000 0.000000 In
1.000000 0.500000 0.000000 In
0.000000 0.000000 0.500000 In
0.000000 0.000000 0.000000 Ga
0.500000 0.000000 0.500000 Ga
1.000000 0.500000 0.500000 Sb
0.500000 0.500000 0.000000 Sb
0.256292 0.500000 0.500000 I
0.500000 0.500000 0.256292 I
0.743708 0.500000 0.500000 I
0.500000 0.256292 0.500000 I
0.500000 0.743708 0.500000 I
0.500000 0.500000 0.743708 I
0.256292 0.000000 0.000000 I
0.500000 0.000000 0.756292 I
0.743708 0.000000 0.000000 I
0.500000 0.756292 0.000000 I
0.500000 0.243708 0.000000 I
0.500000 0.000000 0.243708 I
0.756292 0.500000 0.000000 I
1.000000 0.500000 0.756292 I
0.243708 0.500000 0.000000 I
1.000000 0.256292 0.000000 I
1.000000 0.743708 0.000000 I
1.000000 0.500000 0.243708 I
0.756292 0.000000 0.500000 I
0.000000 0.000000 0.256292 I
0.243708 0.000000 0.500000 I
1.000000 0.756292 0.500000 I
1.000000 0.243708 0.500000 I
0.000000 0.000000 0.743708 I
