Cs8 Tl3 In1 As4 I24
1.0
12.409486 0.000000 0.000000
-0.000000 12.409486 0.000000
0.000000 0.000000 12.409486
Cs Tl In As I
8 3 1 4 24
direct
0.250000 0.250000 0.750000 Cs
0.750000 0.750000 0.250000 Cs
0.250000 0.750000 0.250000 Cs
0.750000 0.250000 0.750000 Cs
0.750000 0.250000 0.250000 Cs
0.250000 0.750000 0.750000 Cs
0.750000 0.750000 0.750000 Cs
0.250000 0.250000 0.250000 Cs
0.000000 0.500000 0.000000 Tl
0.000000 0.000000 0.500000 Tl
0.500000 0.500000 0.500000 Tl
0.500000 0.000000 0.000000 In
0.500000 0.500000 0.000000 As
0.500000 0.000000 0.500000 As
0.000000 0.500000 0.500000 As
0.000000 0.000000 0.000000 As
0.737594 0.500000 1.000000 I
0.000000 0.500000 0.737594 I
0.262406 0.500000 0.000000 I
1.000000 0.237594 0.000000 I
0.000000 0.762406 0.000000 I
0.000000 0.500000 0.262406 I
0.737594 0.000000 0.500000 I
0.000000 0.000000 0.237594 I
0.262406 0.000000 0.500000 I
0.000000 0.737594 0.500000 I
0.000000 0.262406 0.500000 I
0.000000 0.000000 0.762406 I
0.237594 0.500000 0.500000 I
0.500000 0.500000 0.237594 I
0.762406 0.500000 0.500000 I
0.500000 0.237594 0.500000 I
0.500000 0.762406 0.500000 I
0.500000 0.500000 0.762406 I
0.237594 0.000000 0.000000 I
0.500000 0.000000 0.737594 I
0.762406 0.000000 0.000000 I
0.500000 0.737594 0.000000 I
0.500000 0.262406 0.000000 I
0.500000 0.000000 0.262406 I
