Cs8 Tl3 In4 Sb1 Br24
1.0
11.803473 0.000000 0.000000
-0.000000 11.803473 0.000000
0.000000 0.000000 11.803473
Cs Tl In Sb Br
8 3 4 1 24
direct
0.250000 0.750000 0.250000 Cs
0.750000 0.250000 0.750000 Cs
0.250000 0.250000 0.750000 Cs
0.750000 0.750000 0.250000 Cs
0.750000 0.750000 0.750000 Cs
0.250000 0.250000 0.250000 Cs
0.750000 0.250000 0.250000 Cs
0.250000 0.750000 0.750000 Cs
0.500000 0.000000 0.500000 Tl
0.000000 0.000000 0.000000 Tl
1.000000 0.500000 0.500000 Tl
0.000000 0.000000 0.500000 In
1.000000 0.500000 0.000000 In
0.500000 0.000000 1.000000 In
0.500000 0.500000 0.500000 In
0.500000 0.500000 1.000000 Sb
0.739455 0.000000 0.500000 Br
0.000000 0.000000 0.239455 Br
0.260545 0.000000 0.500000 Br
1.000000 0.739455 0.500000 Br
1.000000 0.260545 0.500000 Br
0.000000 0.000000 0.760545 Br
0.739455 0.500000 0.000000 Br
1.000000 0.500000 0.739455 Br
0.260545 0.500000 0.000000 Br
0.000000 0.239455 0.000000 Br
1.000000 0.760545 0.000000 Br
1.000000 0.500000 0.260545 Br
0.239455 0.000000 0.000000 Br
0.500000 0.000000 0.739455 Br
0.760545 0.000000 0.000000 Br
0.500000 0.739455 0.000000 Br
0.500000 0.260545 1.000000 Br
0.500000 0.000000 0.260545 Br
0.239455 0.500000 0.500000 Br
0.500000 0.500000 0.239455 Br
0.760545 0.500000 0.500000 Br
0.500000 0.239455 0.500000 Br
0.500000 0.760545 0.500000 Br
0.500000 0.500000 0.760545 Br
