Cs8 In1 As4 Au3 Br24
1.0
11.192781 0.000000 0.000000
-0.000000 11.192781 0.000000
0.000000 0.000000 11.192781
Cs In As Au Br
8 1 4 3 24
direct
0.750000 0.750000 0.750000 Cs
0.250000 0.250000 0.250000 Cs
0.750000 0.250000 0.250000 Cs
0.250000 0.750000 0.750000 Cs
0.250000 0.750000 0.250000 Cs
0.750000 0.250000 0.750000 Cs
0.250000 0.250000 0.750000 Cs
0.750000 0.750000 0.250000 Cs
1.000000 0.500000 1.000000 In
0.000000 0.000000 0.000000 As
1.000000 0.500000 0.500000 As
0.500000 0.000000 0.500000 As
0.500000 0.500000 1.000000 As
0.500000 0.000000 1.000000 Au
0.500000 0.500000 0.500000 Au
0.000000 0.000000 0.500000 Au
0.244396 0.000000 0.000000 Br
0.500000 0.000000 0.744396 Br
0.755604 0.000000 0.000000 Br
0.500000 0.744396 0.000000 Br
0.500000 0.255604 1.000000 Br
0.500000 0.000000 0.255604 Br
0.244396 0.500000 0.500000 Br
0.500000 0.500000 0.244396 Br
0.755604 0.500000 0.500000 Br
0.500000 0.244396 0.500000 Br
0.500000 0.755604 0.500000 Br
0.500000 0.500000 0.755604 Br
0.744396 0.000000 0.500000 Br
0.000000 0.000000 0.244396 Br
0.255604 0.000000 0.500000 Br
1.000000 0.744396 0.500000 Br
1.000000 0.255604 0.500000 Br
0.000000 0.000000 0.755604 Br
0.744396 0.500000 1.000000 Br
1.000000 0.500000 0.744396 Br
0.255604 0.500000 0.000000 Br
0.000000 0.244396 0.000000 Br
1.000000 0.755604 0.000000 Br
1.000000 0.500000 0.255604 Br
