Cs8 Sc4 In1 Au3 Br24
1.0
11.174062 0.000000 0.000000
-0.000000 11.174062 0.000000
0.000000 0.000000 11.174062
Cs Sc In Au Br
8 4 1 3 24
direct
0.750000 0.750000 0.750000 Cs
0.250000 0.250000 0.250000 Cs
0.750000 0.250000 0.250000 Cs
0.250000 0.750000 0.750000 Cs
0.250000 0.750000 0.250000 Cs
0.750000 0.250000 0.750000 Cs
0.250000 0.250000 0.750000 Cs
0.750000 0.750000 0.250000 Cs
0.000000 0.000000 0.000000 Sc
0.000000 0.500000 0.500000 Sc
0.500000 0.000000 0.500000 Sc
0.500000 0.500000 0.000000 Sc
0.000000 0.000000 0.500000 In
0.500000 0.000000 0.000000 Au
0.500000 0.500000 0.500000 Au
0.000000 0.500000 0.000000 Au
0.228758 0.000000 1.000000 Br
0.500000 0.000000 0.728758 Br
0.771242 0.000000 0.000000 Br
0.500000 0.728758 0.000000 Br
0.500000 0.271242 0.000000 Br
0.500000 0.000000 0.271242 Br
0.228758 0.500000 0.500000 Br
0.500000 0.500000 0.228758 Br
0.771242 0.500000 0.500000 Br
0.500000 0.228758 0.500000 Br
0.500000 0.771242 0.500000 Br
0.500000 0.500000 0.771242 Br
0.728758 0.000000 0.500000 Br
0.000000 0.000000 0.228758 Br
0.271242 0.000000 0.500000 Br
0.000000 0.728758 0.500000 Br
1.000000 0.271242 0.500000 Br
0.000000 0.000000 0.771242 Br
0.728758 0.500000 0.000000 Br
0.000000 0.500000 0.728758 Br
0.271242 0.500000 0.000000 Br
0.000000 0.228758 1.000000 Br
1.000000 0.771242 0.000000 Br
0.000000 0.500000 0.271242 Br
