Cs8 In4 Sb1 As3 Br24
1.0
11.528641 0.000000 0.000000
-0.000000 11.528641 0.000000
0.000000 0.000000 11.528641
Cs In Sb As Br
8 4 1 3 24
direct
0.250000 0.750000 0.250000 Cs
0.750000 0.250000 0.750000 Cs
0.250000 0.250000 0.750000 Cs
0.750000 0.750000 0.250000 Cs
0.750000 0.750000 0.750000 Cs
0.250000 0.250000 0.250000 Cs
0.750000 0.250000 0.250000 Cs
0.250000 0.750000 0.750000 Cs
0.000000 0.000000 0.500000 In
0.000000 0.500000 0.000000 In
0.500000 0.000000 0.000000 In
0.500000 0.500000 0.500000 In
0.000000 0.500000 0.500000 Sb
0.500000 0.000000 0.500000 As
0.500000 0.500000 0.000000 As
0.000000 0.000000 0.000000 As
0.739455 0.000000 0.500000 Br
0.000000 0.000000 0.239455 Br
0.260545 0.000000 0.500000 Br
0.000000 0.739455 0.500000 Br
0.000000 0.260545 0.500000 Br
0.000000 0.000000 0.760545 Br
0.739455 0.500000 1.000000 Br
0.000000 0.500000 0.739455 Br
0.260545 0.500000 1.000000 Br
0.000000 0.239455 0.000000 Br
0.000000 0.760545 1.000000 Br
0.000000 0.500000 0.260545 Br
0.239455 0.000000 0.000000 Br
0.500000 0.000000 0.739455 Br
0.760545 0.000000 1.000000 Br
0.500000 0.739455 1.000000 Br
0.500000 0.260545 1.000000 Br
0.500000 0.000000 0.260545 Br
0.239455 0.500000 0.500000 Br
0.500000 0.500000 0.239455 Br
0.760545 0.500000 0.500000 Br
0.500000 0.239455 0.500000 Br
0.500000 0.760545 0.500000 Br
0.500000 0.500000 0.760545 Br
