Cs8 Tl1 As4 Au3 Cl24
1.0
10.570504 0.000000 0.000000
-0.000000 10.570504 0.000000
0.000000 0.000000 10.570504
Cs Tl As Au Cl
8 1 4 3 24
direct
0.250000 0.250000 0.250000 Cs
0.750000 0.750000 0.750000 Cs
0.250000 0.750000 0.750000 Cs
0.750000 0.250000 0.250000 Cs
0.750000 0.250000 0.750000 Cs
0.250000 0.750000 0.250000 Cs
0.750000 0.750000 0.250000 Cs
0.250000 0.250000 0.750000 Cs
0.500000 0.000000 0.500000 Tl
0.500000 0.500000 0.500000 As
0.500000 0.000000 0.000000 As
1.000000 0.500000 0.000000 As
0.000000 0.000000 0.500000 As
1.000000 0.500000 0.500000 Au
0.000000 0.000000 0.000000 Au
0.500000 0.500000 0.000000 Au
0.726076 0.500000 0.500000 Cl
1.000000 0.500000 0.226076 Cl
0.273924 0.500000 0.500000 Cl
1.000000 0.226076 0.500000 Cl
1.000000 0.773924 0.500000 Cl
1.000000 0.500000 0.773924 Cl
0.726076 0.000000 0.000000 Cl
0.000000 0.000000 0.726076 Cl
0.273924 0.000000 0.000000 Cl
1.000000 0.726076 0.000000 Cl
1.000000 0.273924 0.000000 Cl
0.000000 0.000000 0.273924 Cl
0.226076 0.500000 0.000000 Cl
0.500000 0.500000 0.726076 Cl
0.773924 0.500000 0.000000 Cl
0.500000 0.226076 0.000000 Cl
0.500000 0.773924 0.000000 Cl
0.500000 0.500000 0.273924 Cl
0.226076 0.000000 0.500000 Cl
0.500000 0.000000 0.226076 Cl
0.773924 0.000000 0.500000 Cl
0.500000 0.726076 0.500000 Cl
0.500000 0.273924 0.500000 Cl
0.500000 0.000000 0.773924 Cl
