Cs8 In4 Sb4 I18 Br6
1.0
12.382999 0.000000 0.000000
-0.000000 12.382999 0.000000
0.000000 0.000000 12.382999
Cs In Sb I Br
8 4 4 18 6
direct
0.250000 0.750000 0.250000 Cs
0.750000 0.250000 0.750000 Cs
0.250000 0.250000 0.750000 Cs
0.750000 0.750000 0.250000 Cs
0.750000 0.750000 0.750000 Cs
0.250000 0.250000 0.250000 Cs
0.750000 0.250000 0.250000 Cs
0.250000 0.750000 0.750000 Cs
0.000000 0.000000 0.500000 In
1.000000 0.500000 0.000000 In
0.500000 0.000000 0.000000 In
0.500000 0.500000 0.500000 In
0.500000 0.000000 0.500000 Sb
0.500000 0.500000 0.000000 Sb
0.000000 0.000000 0.000000 Sb
1.000000 0.500000 0.500000 Sb
0.742467 0.000000 0.500000 I
0.000000 0.000000 0.242467 I
1.000000 0.257533 0.500000 I
1.000000 0.500000 0.742467 I
0.257533 0.500000 0.000000 I
1.000000 0.242467 0.000000 I
1.000000 0.757533 0.000000 I
1.000000 0.500000 0.257533 I
0.500000 0.000000 0.742467 I
0.757533 0.000000 1.000000 I
0.500000 0.742467 0.000000 I
0.500000 0.257533 0.000000 I
0.500000 0.000000 0.257533 I
0.242467 0.500000 0.500000 I
0.500000 0.500000 0.242467 I
0.757533 0.500000 0.500000 I
0.500000 0.757533 0.500000 I
0.500000 0.500000 0.757533 I
0.257533 0.000000 0.500000 Br
1.000000 0.742467 0.500000 Br
0.000000 0.000000 0.757533 Br
0.742467 0.500000 0.000000 Br
0.242467 0.000000 0.000000 Br
0.500000 0.242467 0.500000 Br
