Cs8 In4 Sb4 Br2 Cl22
1.0
11.367808 0.000000 0.000000
-0.000000 11.367808 0.000000
0.000000 0.000000 11.367808
Cs In Sb Br Cl
8 4 4 2 22
direct
0.250000 0.250000 0.750000 Cs
0.750000 0.750000 0.250000 Cs
0.250000 0.750000 0.250000 Cs
0.750000 0.250000 0.750000 Cs
0.750000 0.250000 0.250000 Cs
0.250000 0.750000 0.750000 Cs
0.750000 0.750000 0.750000 Cs
0.250000 0.250000 0.250000 Cs
0.000000 0.500000 0.000000 In
0.000000 0.000000 0.500000 In
0.500000 0.500000 0.500000 In
0.500000 0.000000 0.000000 In
0.500000 0.500000 0.000000 Sb
0.500000 0.000000 0.500000 Sb
0.000000 0.500000 0.500000 Sb
0.000000 0.000000 0.000000 Sb
0.000000 0.760545 0.000000 Br
0.760545 0.000000 1.000000 Br
0.739455 0.500000 1.000000 Cl
0.000000 0.500000 0.739455 Cl
0.260545 0.500000 0.000000 Cl
1.000000 0.239455 0.000000 Cl
0.000000 0.500000 0.260545 Cl
0.739455 0.000000 0.500000 Cl
0.000000 0.000000 0.239455 Cl
0.260545 0.000000 0.500000 Cl
0.000000 0.739455 0.500000 Cl
0.000000 0.260545 0.500000 Cl
0.000000 0.000000 0.760545 Cl
0.239455 0.500000 0.500000 Cl
0.500000 0.500000 0.239455 Cl
0.760545 0.500000 0.500000 Cl
0.500000 0.239455 0.500000 Cl
0.500000 0.760545 0.500000 Cl
0.500000 0.500000 0.760545 Cl
0.239455 0.000000 0.000000 Cl
0.500000 0.000000 0.739455 Cl
0.500000 0.739455 0.000000 Cl
0.500000 0.260545 0.000000 Cl
0.500000 0.000000 0.260545 Cl
