Cs8 Tl4 Cu4 Br12 Cl12
1.0
10.792368 0.000000 0.000000
-0.000000 10.792368 0.000000
0.000000 0.000000 10.792368
Cs Tl Cu Br Cl
8 4 4 12 12
direct
0.750000 0.750000 0.750000 Cs
0.250000 0.250000 0.250000 Cs
0.750000 0.250000 0.250000 Cs
0.250000 0.750000 0.750000 Cs
0.250000 0.750000 0.250000 Cs
0.750000 0.250000 0.750000 Cs
0.250000 0.250000 0.750000 Cs
0.750000 0.750000 0.250000 Cs
0.000000 0.000000 0.000000 Tl
1.000000 0.500000 0.500000 Tl
0.500000 0.000000 0.500000 Tl
0.500000 0.500000 1.000000 Tl
0.500000 0.000000 1.000000 Cu
0.500000 0.500000 0.500000 Cu
0.000000 0.000000 0.500000 Cu
1.000000 0.500000 1.000000 Cu
0.263140 0.000000 1.000000 Br
0.736860 0.000000 1.000000 Br
0.500000 0.763140 0.000000 Br
0.500000 0.000000 0.236860 Br
0.263140 0.500000 0.500000 Br
0.500000 0.500000 0.263140 Br
0.500000 0.736860 0.500000 Br
0.236860 0.000000 0.500000 Br
0.000000 0.763140 0.500000 Br
0.000000 0.000000 0.736860 Br
0.236860 0.500000 0.000000 Br
1.000000 0.500000 0.236860 Br
0.500000 0.000000 0.763140 Cl
0.500000 0.236860 1.000000 Cl
0.736860 0.500000 0.500000 Cl
0.500000 0.263140 0.500000 Cl
0.500000 0.500000 0.736860 Cl
0.763140 0.000000 0.500000 Cl
0.000000 0.000000 0.263140 Cl
1.000000 0.236860 0.500000 Cl
0.763140 0.500000 1.000000 Cl
1.000000 0.500000 0.763140 Cl
0.000000 0.263140 0.000000 Cl
0.000000 0.736860 1.000000 Cl
