Cs8 Tl4 Ag4 I22 Br2
1.0
12.105287 0.000000 0.000000
-0.000000 12.105287 0.000000
0.000000 0.000000 12.105287
Cs Tl Ag I Br
8 4 4 22 2
direct
0.750000 0.750000 0.750000 Cs
0.250000 0.250000 0.250000 Cs
0.750000 0.250000 0.250000 Cs
0.250000 0.750000 0.750000 Cs
0.250000 0.750000 0.250000 Cs
0.750000 0.250000 0.750000 Cs
0.250000 0.250000 0.750000 Cs
0.750000 0.750000 0.250000 Cs
0.000000 0.000000 0.000000 Tl
0.000000 0.500000 0.500000 Tl
0.500000 0.000000 0.500000 Tl
0.500000 0.500000 1.000000 Tl
0.500000 0.000000 1.000000 Ag
0.500000 0.500000 0.500000 Ag
0.000000 0.000000 0.500000 Ag
0.000000 0.500000 1.000000 Ag
0.500000 0.000000 0.751926 I
0.748074 0.000000 0.000000 I
0.500000 0.751926 1.000000 I
0.500000 0.000000 0.248074 I
0.251926 0.500000 0.500000 I
0.500000 0.500000 0.251926 I
0.748074 0.500000 0.500000 I
0.500000 0.251926 0.500000 I
0.500000 0.748074 0.500000 I
0.500000 0.500000 0.748074 I
0.751926 0.000000 0.500000 I
0.000000 0.000000 0.251926 I
0.248074 0.000000 0.500000 I
0.000000 0.751926 0.500000 I
0.000000 0.248074 0.500000 I
0.000000 0.000000 0.748074 I
0.751926 0.500000 1.000000 I
0.000000 0.500000 0.751926 I
0.248074 0.500000 1.000000 I
0.000000 0.251926 1.000000 I
0.000000 0.748074 0.000000 I
0.000000 0.500000 0.248074 I
0.251926 0.000000 1.000000 Br
0.500000 0.248074 1.000000 Br
