Cs8 Tl1 Sb3 Au4 I24
1.0
12.082740 0.000000 0.000000
-0.000000 12.082740 0.000000
0.000000 0.000000 12.082740
Cs Tl Sb Au I
8 1 3 4 24
direct
0.750000 0.750000 0.750000 Cs
0.250000 0.250000 0.250000 Cs
0.750000 0.250000 0.250000 Cs
0.250000 0.750000 0.750000 Cs
0.250000 0.750000 0.250000 Cs
0.750000 0.250000 0.750000 Cs
0.250000 0.250000 0.750000 Cs
0.750000 0.750000 0.250000 Cs
1.000000 0.500000 0.500000 Tl
0.000000 0.000000 0.000000 Sb
0.500000 0.000000 0.500000 Sb
0.500000 0.500000 0.000000 Sb
0.500000 0.000000 0.000000 Au
0.500000 0.500000 0.500000 Au
0.000000 0.000000 0.500000 Au
1.000000 0.500000 0.000000 Au
0.252885 0.000000 0.000000 I
0.500000 0.000000 0.752885 I
0.747115 0.000000 0.000000 I
0.500000 0.752885 0.000000 I
0.500000 0.247115 0.000000 I
0.500000 0.000000 0.247115 I
0.252885 0.500000 0.500000 I
0.500000 0.500000 0.252885 I
0.747115 0.500000 0.500000 I
0.500000 0.252885 0.500000 I
0.500000 0.747115 0.500000 I
0.500000 0.500000 0.747115 I
0.752885 0.000000 0.500000 I
0.000000 0.000000 0.252885 I
0.247115 0.000000 0.500000 I
1.000000 0.752885 0.500000 I
1.000000 0.247115 0.500000 I
0.000000 0.000000 0.747115 I
0.752885 0.500000 0.000000 I
1.000000 0.500000 0.752885 I
0.247115 0.500000 0.000000 I
1.000000 0.252885 0.000000 I
1.000000 0.747115 0.000000 I
1.000000 0.500000 0.247115 I
