Cs8 In4 Sb3 As1 Cl24
1.0
11.326520 0.000000 0.000000
-0.000000 11.326520 0.000000
0.000000 0.000000 11.326520
Cs In Sb As Cl
8 4 3 1 24
direct
0.750000 0.250000 0.250000 Cs
0.250000 0.750000 0.750000 Cs
0.750000 0.750000 0.750000 Cs
0.250000 0.250000 0.250000 Cs
0.250000 0.250000 0.750000 Cs
0.750000 0.750000 0.250000 Cs
0.250000 0.750000 0.250000 Cs
0.750000 0.250000 0.750000 Cs
0.500000 0.500000 0.500000 In
0.500000 0.000000 1.000000 In
0.000000 0.500000 1.000000 In
0.000000 0.000000 0.500000 In
0.000000 0.500000 0.500000 Sb
0.000000 0.000000 0.000000 Sb
0.500000 0.000000 0.500000 Sb
0.500000 0.500000 1.000000 As
0.229991 0.500000 0.500000 Cl
0.500000 0.500000 0.229991 Cl
0.770009 0.500000 0.500000 Cl
0.500000 0.229991 0.500000 Cl
0.500000 0.770009 0.500000 Cl
0.500000 0.500000 0.770009 Cl
0.229991 0.000000 1.000000 Cl
0.500000 0.000000 0.729991 Cl
0.770009 0.000000 0.000000 Cl
0.500000 0.729991 1.000000 Cl
0.500000 0.270009 1.000000 Cl
0.500000 0.000000 0.270009 Cl
0.729991 0.500000 1.000000 Cl
0.000000 0.500000 0.729991 Cl
0.270009 0.500000 1.000000 Cl
0.000000 0.229991 1.000000 Cl
1.000000 0.770009 0.000000 Cl
0.000000 0.500000 0.270009 Cl
0.729991 0.000000 0.500000 Cl
0.000000 0.000000 0.229991 Cl
0.270009 0.000000 0.500000 Cl
0.000000 0.729991 0.500000 Cl
0.000000 0.270009 0.500000 Cl
0.000000 0.000000 0.770009 Cl
