Cs8 Tl2 In2 Bi4 Cl24
1.0
11.529557 0.000000 0.000000
-0.000000 11.529557 0.000000
0.000000 0.000000 11.529557
Cs Tl In Bi Cl
8 2 2 4 24
direct
0.750000 0.250000 0.250000 Cs
0.250000 0.750000 0.750000 Cs
0.750000 0.750000 0.750000 Cs
0.250000 0.250000 0.250000 Cs
0.250000 0.250000 0.750000 Cs
0.750000 0.750000 0.250000 Cs
0.250000 0.750000 0.250000 Cs
0.750000 0.250000 0.750000 Cs
0.500000 0.500000 0.500000 Tl
0.000000 0.500000 1.000000 Tl
0.500000 0.000000 1.000000 In
0.000000 0.000000 0.500000 In
0.000000 0.500000 0.500000 Bi
0.000000 0.000000 0.000000 Bi
0.500000 0.500000 1.000000 Bi
0.500000 0.000000 0.500000 Bi
0.238046 0.500000 0.500000 Cl
0.500000 0.500000 0.238046 Cl
0.761954 0.500000 0.500000 Cl
0.500000 0.238046 0.500000 Cl
0.500000 0.761954 0.500000 Cl
0.500000 0.500000 0.761954 Cl
0.238046 0.000000 1.000000 Cl
0.500000 0.000000 0.738046 Cl
0.761954 0.000000 1.000000 Cl
0.500000 0.738046 0.000000 Cl
0.500000 0.261954 1.000000 Cl
0.500000 0.000000 0.261954 Cl
0.738046 0.500000 0.000000 Cl
0.000000 0.500000 0.738046 Cl
0.261954 0.500000 1.000000 Cl
0.000000 0.238046 0.000000 Cl
0.000000 0.761954 0.000000 Cl
0.000000 0.500000 0.261954 Cl
0.738046 0.000000 0.500000 Cl
0.000000 0.000000 0.238046 Cl
0.261954 0.000000 0.500000 Cl
0.000000 0.738046 0.500000 Cl
1.000000 0.261954 0.500000 Cl
0.000000 0.000000 0.761954 Cl
