pymatgen generated KPOINTS with grid density = 448 / atom
0
Monkhorst
2 2 2
