Cs8 Tl1 Ga4 Ag3 Cl24
1.0
10.585338 0.000000 0.000000
-0.000000 10.585338 0.000000
0.000000 0.000000 10.585338
Cs Tl Ga Ag Cl
8 1 4 3 24
direct
0.750000 0.750000 0.750000 Cs
0.250000 0.250000 0.250000 Cs
0.750000 0.250000 0.250000 Cs
0.250000 0.750000 0.750000 Cs
0.250000 0.750000 0.250000 Cs
0.750000 0.250000 0.750000 Cs
0.250000 0.250000 0.750000 Cs
0.750000 0.750000 0.250000 Cs
0.500000 0.000000 0.000000 Tl
0.000000 0.000000 0.000000 Ga
0.000000 0.500000 0.500000 Ga
0.500000 0.000000 0.500000 Ga
0.500000 0.500000 0.000000 Ga
0.500000 0.500000 0.500000 Ag
0.000000 0.000000 0.500000 Ag
0.000000 0.500000 0.000000 Ag
0.232697 0.000000 0.000000 Cl
0.500000 0.000000 0.732697 Cl
0.767303 0.000000 0.000000 Cl
0.500000 0.732697 0.000000 Cl
0.500000 0.267303 0.000000 Cl
0.500000 0.000000 0.267303 Cl
0.232697 0.500000 0.500000 Cl
0.500000 0.500000 0.232697 Cl
0.767303 0.500000 0.500000 Cl
0.500000 0.232697 0.500000 Cl
0.500000 0.767303 0.500000 Cl
0.500000 0.500000 0.767303 Cl
0.732697 0.000000 0.500000 Cl
0.000000 0.000000 0.232697 Cl
0.267303 0.000000 0.500000 Cl
1.000000 0.732697 0.500000 Cl
1.000000 0.267303 0.500000 Cl
0.000000 0.000000 0.767303 Cl
0.732697 0.500000 0.000000 Cl
0.000000 0.500000 0.732697 Cl
0.267303 0.500000 0.000000 Cl
0.000000 0.232697 1.000000 Cl
1.000000 0.767303 0.000000 Cl
0.000000 0.500000 0.267303 Cl
