Cs8 Tl4 Ga4 Br12 Cl12
1.0
11.262774 0.000000 0.000000
-0.000000 11.262774 0.000000
0.000000 0.000000 11.262774
Cs Tl Ga Br Cl
8 4 4 12 12
direct
0.250000 0.250000 0.750000 Cs
0.750000 0.750000 0.250000 Cs
0.250000 0.750000 0.250000 Cs
0.750000 0.250000 0.750000 Cs
0.750000 0.250000 0.250000 Cs
0.250000 0.750000 0.750000 Cs
0.750000 0.750000 0.750000 Cs
0.250000 0.250000 0.250000 Cs
0.000000 0.500000 1.000000 Tl
0.000000 0.000000 0.500000 Tl
0.500000 0.500000 0.500000 Tl
0.500000 0.000000 1.000000 Tl
0.500000 0.500000 1.000000 Ga
0.500000 0.000000 0.500000 Ga
0.000000 0.500000 0.500000 Ga
0.000000 0.000000 0.000000 Ga
0.000000 0.500000 0.723961 Br
0.276039 0.500000 0.000000 Br
0.000000 0.776039 0.000000 Br
0.000000 0.000000 0.776039 Br
0.223961 0.500000 0.500000 Br
0.776039 0.500000 0.500000 Br
0.500000 0.776039 0.500000 Br
0.500000 0.500000 0.776039 Br
0.223961 0.000000 1.000000 Br
0.500000 0.723961 0.000000 Br
0.500000 0.276039 1.000000 Br
0.500000 0.000000 0.276039 Br
0.723961 0.500000 0.000000 Cl
0.000000 0.223961 1.000000 Cl
0.000000 0.500000 0.276039 Cl
0.723961 0.000000 0.500000 Cl
0.000000 0.000000 0.223961 Cl
0.276039 0.000000 0.500000 Cl
0.000000 0.723961 0.500000 Cl
1.000000 0.276039 0.500000 Cl
0.500000 0.500000 0.223961 Cl
0.500000 0.223961 0.500000 Cl
0.500000 0.000000 0.723961 Cl
0.776039 0.000000 0.000000 Cl
