Cs8 In8 I23 Br1
1.0
12.423825 0.000000 0.000000
-0.000000 12.423825 0.000000
0.000000 0.000000 12.423825
Cs In I Br
8 8 23 1
direct
0.750000 0.750000 0.750000 Cs
0.250000 0.250000 0.250000 Cs
0.750000 0.250000 0.250000 Cs
0.250000 0.750000 0.750000 Cs
0.250000 0.750000 0.250000 Cs
0.750000 0.250000 0.750000 Cs
0.250000 0.250000 0.750000 Cs
0.750000 0.750000 0.250000 Cs
0.500000 0.000000 1.000000 In
0.000000 0.000000 0.000000 In
0.500000 0.500000 0.500000 In
1.000000 0.500000 0.500000 In
0.000000 0.000000 0.500000 In
0.500000 0.000000 0.500000 In
1.000000 0.500000 0.000000 In
0.500000 0.500000 1.000000 In
0.239772 0.000000 1.000000 I
0.500000 0.000000 0.739772 I
0.760228 0.000000 0.000000 I
0.500000 0.739772 0.000000 I
0.500000 0.260228 0.000000 I
0.239772 0.500000 0.500000 I
0.500000 0.500000 0.239772 I
0.760228 0.500000 0.500000 I
0.500000 0.239772 0.500000 I
0.500000 0.760228 0.500000 I
0.500000 0.500000 0.760228 I
0.739772 0.000000 0.500000 I
0.000000 0.000000 0.239772 I
0.260228 0.000000 0.500000 I
0.000000 0.739772 0.500000 I
1.000000 0.260228 0.500000 I
0.000000 0.000000 0.760228 I
0.739772 0.500000 1.000000 I
1.000000 0.500000 0.739772 I
0.260228 0.500000 1.000000 I
1.000000 0.239772 0.000000 I
0.000000 0.760228 0.000000 I
1.000000 0.500000 0.260228 I
0.500000 0.000000 0.260228 Br
