Cs8 Tl4 Ga4 I22 Br2
1.0
12.298977 0.000000 0.000000
-0.000000 12.298977 0.000000
0.000000 0.000000 12.298977
Cs Tl Ga I Br
8 4 4 22 2
direct
0.750000 0.750000 0.750000 Cs
0.250000 0.250000 0.250000 Cs
0.750000 0.250000 0.250000 Cs
0.250000 0.750000 0.750000 Cs
0.250000 0.750000 0.250000 Cs
0.750000 0.250000 0.750000 Cs
0.250000 0.250000 0.750000 Cs
0.750000 0.750000 0.250000 Cs
0.500000 0.000000 1.000000 Tl
0.500000 0.500000 0.500000 Tl
0.000000 0.000000 0.500000 Tl
0.000000 0.500000 1.000000 Tl
0.000000 0.000000 0.000000 Ga
0.000000 0.500000 0.500000 Ga
0.500000 0.000000 0.500000 Ga
0.500000 0.500000 1.000000 Ga
0.223961 0.000000 1.000000 I
0.500000 0.000000 0.723961 I
0.776039 0.000000 1.000000 I
0.500000 0.276039 1.000000 I
0.500000 0.000000 0.276039 I
0.223961 0.500000 0.500000 I
0.500000 0.500000 0.223961 I
0.776039 0.500000 0.500000 I
0.500000 0.223961 0.500000 I
0.500000 0.776039 0.500000 I
0.500000 0.500000 0.776039 I
0.723961 0.000000 0.500000 I
0.000000 0.000000 0.223961 I
0.276039 0.000000 0.500000 I
0.000000 0.723961 0.500000 I
0.000000 0.276039 0.500000 I
0.000000 0.000000 0.776039 I
0.723961 0.500000 1.000000 I
0.000000 0.500000 0.723961 I
0.276039 0.500000 1.000000 I
0.000000 0.776039 1.000000 I
0.000000 0.500000 0.276039 I
0.500000 0.723961 1.000000 Br
0.000000 0.223961 1.000000 Br
