Cs8 Cu4 Bi2 Sb2 Cl24
1.0
10.570400 0.000000 0.000000
-0.000000 10.570400 0.000000
0.000000 0.000000 10.570400
Cs Cu Bi Sb Cl
8 4 2 2 24
direct
0.750000 0.750000 0.750000 Cs
0.250000 0.250000 0.250000 Cs
0.750000 0.250000 0.250000 Cs
0.250000 0.750000 0.750000 Cs
0.250000 0.750000 0.250000 Cs
0.750000 0.250000 0.750000 Cs
0.250000 0.250000 0.750000 Cs
0.750000 0.750000 0.250000 Cs
0.500000 0.000000 1.000000 Cu
0.500000 0.500000 0.500000 Cu
0.000000 0.000000 0.500000 Cu
1.000000 0.500000 1.000000 Cu
0.000000 0.000000 0.000000 Bi
0.500000 0.500000 1.000000 Bi
1.000000 0.500000 0.500000 Sb
0.500000 0.000000 0.500000 Sb
0.259135 0.000000 1.000000 Cl
0.500000 0.000000 0.759135 Cl
0.740865 0.000000 0.000000 Cl
0.500000 0.759135 0.000000 Cl
0.500000 0.240865 0.000000 Cl
0.500000 0.000000 0.240865 Cl
0.259135 0.500000 0.500000 Cl
0.500000 0.500000 0.259135 Cl
0.740865 0.500000 0.500000 Cl
0.500000 0.259135 0.500000 Cl
0.500000 0.740865 0.500000 Cl
0.500000 0.500000 0.740865 Cl
0.759135 0.000000 0.500000 Cl
0.000000 0.000000 0.259135 Cl
0.240865 0.000000 0.500000 Cl
1.000000 0.759135 0.500000 Cl
1.000000 0.240865 0.500000 Cl
0.000000 0.000000 0.740865 Cl
0.759135 0.500000 1.000000 Cl
1.000000 0.500000 0.759135 Cl
0.240865 0.500000 0.000000 Cl
0.000000 0.259135 1.000000 Cl
0.000000 0.740865 0.000000 Cl
1.000000 0.500000 0.240865 Cl
