Cs8 In4 As4 I18 Br6
1.0
12.053805 0.000000 0.000000
-0.000000 12.053805 0.000000
0.000000 0.000000 12.053805
Cs In As I Br
8 4 4 18 6
direct
0.750000 0.750000 0.750000 Cs
0.250000 0.250000 0.250000 Cs
0.750000 0.250000 0.250000 Cs
0.250000 0.750000 0.750000 Cs
0.250000 0.750000 0.250000 Cs
0.750000 0.250000 0.750000 Cs
0.250000 0.250000 0.750000 Cs
0.750000 0.750000 0.250000 Cs
0.500000 0.000000 1.000000 In
0.500000 0.500000 0.500000 In
0.000000 0.000000 0.500000 In
0.000000 0.500000 1.000000 In
0.000000 0.000000 0.000000 As
0.000000 0.500000 0.500000 As
0.500000 0.000000 0.500000 As
0.500000 0.500000 1.000000 As
0.237594 0.000000 1.000000 I
0.500000 0.000000 0.737594 I
0.500000 0.262406 1.000000 I
0.237594 0.500000 0.500000 I
0.500000 0.500000 0.237594 I
0.762406 0.500000 0.500000 I
0.500000 0.237594 0.500000 I
0.500000 0.762406 0.500000 I
0.500000 0.500000 0.762406 I
0.737594 0.000000 0.500000 I
0.000000 0.737594 0.500000 I
0.000000 0.262406 0.500000 I
0.000000 0.000000 0.762406 I
0.737594 0.500000 1.000000 I
0.000000 0.500000 0.737594 I
0.262406 0.500000 1.000000 I
0.000000 0.237594 1.000000 I
0.000000 0.762406 1.000000 I
0.762406 0.000000 1.000000 Br
0.500000 0.737594 0.000000 Br
0.500000 0.000000 0.262406 Br
0.000000 0.000000 0.237594 Br
0.262406 0.000000 0.500000 Br
0.000000 0.500000 0.262406 Br
