Cs8 Tl2 Ag2 Sb4 Cl24
1.0
11.160898 0.000000 0.000000
-0.000000 11.160898 0.000000
0.000000 0.000000 11.160898
Cs Tl Ag Sb Cl
8 2 2 4 24
direct
0.750000 0.750000 0.750000 Cs
0.250000 0.250000 0.250000 Cs
0.750000 0.250000 0.250000 Cs
0.250000 0.750000 0.750000 Cs
0.250000 0.750000 0.250000 Cs
0.750000 0.250000 0.750000 Cs
0.250000 0.250000 0.750000 Cs
0.750000 0.750000 0.250000 Cs
0.000000 0.000000 0.500000 Tl
1.000000 0.500000 1.000000 Tl
0.500000 0.000000 1.000000 Ag
0.500000 0.500000 0.500000 Ag
0.000000 0.000000 0.000000 Sb
1.000000 0.500000 0.500000 Sb
0.500000 0.000000 0.500000 Sb
0.500000 0.500000 1.000000 Sb
0.232710 0.000000 0.000000 Cl
0.500000 0.000000 0.732710 Cl
0.767290 0.000000 1.000000 Cl
0.500000 0.732710 0.000000 Cl
0.500000 0.267290 0.000000 Cl
0.500000 0.000000 0.267290 Cl
0.232710 0.500000 0.500000 Cl
0.500000 0.500000 0.232710 Cl
0.767290 0.500000 0.500000 Cl
0.500000 0.232710 0.500000 Cl
0.500000 0.767290 0.500000 Cl
0.500000 0.500000 0.767290 Cl
0.732710 0.000000 0.500000 Cl
0.000000 0.000000 0.232710 Cl
0.267290 0.000000 0.500000 Cl
0.000000 0.732710 0.500000 Cl
1.000000 0.267290 0.500000 Cl
0.000000 0.000000 0.767290 Cl
0.732710 0.500000 0.000000 Cl
1.000000 0.500000 0.732710 Cl
0.267290 0.500000 0.000000 Cl
1.000000 0.232710 1.000000 Cl
0.000000 0.767290 1.000000 Cl
1.000000 0.500000 0.267290 Cl
