Cs8 Sc4 Au4 Br17 Cl7
1.0
11.002896 0.000000 0.000000
-0.000000 11.002896 0.000000
0.000000 0.000000 11.002896
Cs Sc Au Br Cl
8 4 4 17 7
direct
0.750000 0.750000 0.750000 Cs
0.250000 0.250000 0.250000 Cs
0.750000 0.250000 0.250000 Cs
0.250000 0.750000 0.750000 Cs
0.250000 0.750000 0.250000 Cs
0.750000 0.250000 0.750000 Cs
0.250000 0.250000 0.750000 Cs
0.750000 0.750000 0.250000 Cs
0.000000 0.000000 0.000000 Sc
1.000000 0.500000 0.500000 Sc
0.500000 0.000000 0.500000 Sc
0.500000 0.500000 0.000000 Sc
0.500000 0.000000 0.000000 Au
0.500000 0.500000 0.500000 Au
0.000000 0.000000 0.500000 Au
1.000000 0.500000 0.000000 Au
0.500000 0.000000 0.737246 Br
0.762754 0.000000 0.000000 Br
0.500000 0.737246 0.000000 Br
0.500000 0.262754 0.000000 Br
0.500000 0.000000 0.262754 Br
0.237246 0.500000 0.500000 Br
0.762754 0.500000 0.500000 Br
0.500000 0.237246 0.500000 Br
0.500000 0.500000 0.762754 Br
0.737246 0.000000 0.500000 Br
0.000000 0.000000 0.237246 Br
0.262754 0.000000 0.500000 Br
1.000000 0.737246 0.500000 Br
1.000000 0.262754 0.500000 Br
0.000000 0.000000 0.762754 Br
0.737246 0.500000 0.000000 Br
1.000000 0.500000 0.262754 Br
0.237246 0.000000 1.000000 Cl
0.500000 0.500000 0.237246 Cl
0.500000 0.762754 0.500000 Cl
1.000000 0.500000 0.737246 Cl
0.262754 0.500000 0.000000 Cl
1.000000 0.237246 0.000000 Cl
1.000000 0.762754 0.000000 Cl
