Cs8 Tl2 In2 Ga4 Cl24
1.0
10.950959 0.000000 0.000000
-0.000000 10.950959 0.000000
0.000000 0.000000 10.950959
Cs Tl In Ga Cl
8 2 2 4 24
direct
0.750000 0.750000 0.750000 Cs
0.250000 0.250000 0.250000 Cs
0.750000 0.250000 0.250000 Cs
0.250000 0.750000 0.750000 Cs
0.250000 0.750000 0.250000 Cs
0.750000 0.250000 0.750000 Cs
0.250000 0.250000 0.750000 Cs
0.750000 0.750000 0.250000 Cs
0.500000 0.000000 0.000000 Tl
0.500000 0.500000 0.500000 Tl
0.000000 0.000000 0.500000 In
1.000000 0.500000 0.000000 In
0.000000 0.000000 0.000000 Ga
1.000000 0.500000 0.500000 Ga
0.500000 0.000000 0.500000 Ga
0.500000 0.500000 0.000000 Ga
0.265221 0.000000 0.000000 Cl
0.500000 0.000000 0.765221 Cl
0.734779 0.000000 0.000000 Cl
0.500000 0.765221 0.000000 Cl
0.500000 0.234779 0.000000 Cl
0.500000 0.000000 0.234779 Cl
0.265221 0.500000 0.500000 Cl
0.500000 0.500000 0.265221 Cl
0.734779 0.500000 0.500000 Cl
0.500000 0.265221 0.500000 Cl
0.500000 0.734779 0.500000 Cl
0.500000 0.500000 0.734779 Cl
0.765221 0.000000 0.500000 Cl
0.000000 0.000000 0.265221 Cl
0.234779 0.000000 0.500000 Cl
1.000000 0.765221 0.500000 Cl
1.000000 0.234779 0.500000 Cl
0.000000 0.000000 0.734779 Cl
0.765221 0.500000 0.000000 Cl
1.000000 0.500000 0.765221 Cl
0.234779 0.500000 0.000000 Cl
0.000000 0.265221 0.000000 Cl
1.000000 0.734779 0.000000 Cl
1.000000 0.500000 0.234779 Cl
