Cs8 Tl4 As4 Br2 Cl22
1.0
11.174343 0.000000 0.000000
-0.000000 11.174343 0.000000
0.000000 0.000000 11.174343
Cs Tl As Br Cl
8 4 4 2 22
direct
0.750000 0.750000 0.750000 Cs
0.250000 0.250000 0.250000 Cs
0.750000 0.250000 0.250000 Cs
0.250000 0.750000 0.750000 Cs
0.250000 0.750000 0.250000 Cs
0.750000 0.250000 0.750000 Cs
0.250000 0.250000 0.750000 Cs
0.750000 0.750000 0.250000 Cs
0.500000 0.000000 1.000000 Tl
0.500000 0.500000 0.500000 Tl
0.000000 0.000000 0.500000 Tl
0.000000 0.500000 1.000000 Tl
0.000000 0.000000 0.000000 As
0.000000 0.500000 0.500000 As
0.500000 0.000000 0.500000 As
0.500000 0.500000 1.000000 As
0.500000 0.000000 0.729766 Br
0.229766 0.500000 0.500000 Br
0.229766 0.000000 1.000000 Cl
0.770234 0.000000 1.000000 Cl
0.500000 0.729766 1.000000 Cl
0.500000 0.270234 0.000000 Cl
0.500000 0.000000 0.270234 Cl
0.500000 0.500000 0.229766 Cl
0.770234 0.500000 0.500000 Cl
0.500000 0.229766 0.500000 Cl
0.500000 0.770234 0.500000 Cl
0.500000 0.500000 0.770234 Cl
0.729766 0.000000 0.500000 Cl
0.000000 0.000000 0.229766 Cl
0.270234 0.000000 0.500000 Cl
0.000000 0.729766 0.500000 Cl
0.000000 0.270234 0.500000 Cl
0.000000 0.000000 0.770234 Cl
0.729766 0.500000 1.000000 Cl
0.000000 0.500000 0.729766 Cl
0.270234 0.500000 1.000000 Cl
0.000000 0.229766 0.000000 Cl
0.000000 0.770234 1.000000 Cl
0.000000 0.500000 0.270234 Cl
