Cs8 Tl4 In3 Ag1 Cl24
1.0
11.127617 0.000000 0.000000
-0.000000 11.127617 0.000000
0.000000 0.000000 11.127617
Cs Tl In Ag Cl
8 4 3 1 24
direct
0.250000 0.250000 0.250000 Cs
0.750000 0.750000 0.750000 Cs
0.250000 0.750000 0.750000 Cs
0.750000 0.250000 0.250000 Cs
0.750000 0.250000 0.750000 Cs
0.250000 0.750000 0.250000 Cs
0.750000 0.750000 0.250000 Cs
0.250000 0.250000 0.750000 Cs
1.000000 0.500000 0.500000 Tl
0.000000 0.000000 0.000000 Tl
0.500000 0.500000 0.000000 Tl
0.500000 0.000000 0.500000 Tl
0.500000 0.500000 0.500000 In
1.000000 0.500000 0.000000 In
0.000000 0.000000 0.500000 In
0.500000 0.000000 0.000000 Ag
0.726978 0.500000 0.500000 Cl
1.000000 0.500000 0.226978 Cl
0.273022 0.500000 0.500000 Cl
1.000000 0.226978 0.500000 Cl
0.000000 0.773022 0.500000 Cl
1.000000 0.500000 0.773022 Cl
0.726978 0.000000 0.000000 Cl
0.000000 0.000000 0.726978 Cl
0.273022 0.000000 0.000000 Cl
1.000000 0.726978 0.000000 Cl
1.000000 0.273022 0.000000 Cl
0.000000 0.000000 0.273022 Cl
0.226978 0.500000 0.000000 Cl
0.500000 0.500000 0.726978 Cl
0.773022 0.500000 0.000000 Cl
0.500000 0.226978 0.000000 Cl
0.500000 0.773022 0.000000 Cl
0.500000 0.500000 0.273022 Cl
0.226978 0.000000 0.500000 Cl
0.500000 0.000000 0.226978 Cl
0.773022 0.000000 0.500000 Cl
0.500000 0.726978 0.500000 Cl
0.500000 0.273022 0.500000 Cl
0.500000 0.000000 0.773022 Cl
