Cs8 Ga1 As3 Au4 Cl24
1.0
10.504774 0.000000 0.000000
-0.000000 10.504774 0.000000
0.000000 0.000000 10.504774
Cs Ga As Au Cl
8 1 3 4 24
direct
0.750000 0.750000 0.750000 Cs
0.250000 0.250000 0.250000 Cs
0.750000 0.250000 0.250000 Cs
0.250000 0.750000 0.750000 Cs
0.250000 0.750000 0.250000 Cs
0.750000 0.250000 0.750000 Cs
0.250000 0.250000 0.750000 Cs
0.750000 0.750000 0.250000 Cs
0.000000 0.000000 0.000000 Ga
0.000000 0.500000 0.500000 As
0.500000 0.000000 0.500000 As
0.500000 0.500000 1.000000 As
0.500000 0.000000 1.000000 Au
0.500000 0.500000 0.500000 Au
0.000000 0.000000 0.500000 Au
0.000000 0.500000 1.000000 Au
0.241238 0.000000 0.000000 Cl
0.500000 0.000000 0.741238 Cl
0.758762 0.000000 1.000000 Cl
0.500000 0.741238 0.000000 Cl
0.500000 0.258762 1.000000 Cl
0.500000 0.000000 0.258762 Cl
0.241238 0.500000 0.500000 Cl
0.500000 0.500000 0.241238 Cl
0.758762 0.500000 0.500000 Cl
0.500000 0.241238 0.500000 Cl
0.500000 0.758762 0.500000 Cl
0.500000 0.500000 0.758762 Cl
0.741238 0.000000 0.500000 Cl
0.000000 0.000000 0.241238 Cl
0.258762 0.000000 0.500000 Cl
0.000000 0.741238 0.500000 Cl
0.000000 0.258762 0.500000 Cl
0.000000 0.000000 0.758762 Cl
0.741238 0.500000 1.000000 Cl
0.000000 0.500000 0.741238 Cl
0.258762 0.500000 1.000000 Cl
0.000000 0.241238 0.000000 Cl
0.000000 0.758762 1.000000 Cl
0.000000 0.500000 0.258762 Cl
