Cs8 Tl2 In4 Au2 Br24
1.0
11.507333 0.000000 0.000000
-0.000000 11.507333 0.000000
0.000000 0.000000 11.507333
Cs Tl In Au Br
8 2 4 2 24
direct
0.250000 0.250000 0.250000 Cs
0.750000 0.750000 0.750000 Cs
0.250000 0.750000 0.750000 Cs
0.750000 0.250000 0.250000 Cs
0.750000 0.250000 0.750000 Cs
0.250000 0.750000 0.250000 Cs
0.750000 0.750000 0.250000 Cs
0.250000 0.250000 0.750000 Cs
0.000000 0.500000 0.500000 Tl
0.500000 0.000000 0.500000 Tl
0.500000 0.500000 0.500000 In
0.500000 0.000000 1.000000 In
0.000000 0.500000 1.000000 In
0.000000 0.000000 0.500000 In
0.000000 0.000000 0.000000 Au
0.500000 0.500000 1.000000 Au
0.730622 0.500000 0.500000 Br
0.000000 0.500000 0.230622 Br
0.269378 0.500000 0.500000 Br
0.000000 0.230622 0.500000 Br
0.000000 0.769378 0.500000 Br
0.000000 0.500000 0.769378 Br
0.730622 0.000000 1.000000 Br
0.000000 0.000000 0.730622 Br
0.269378 0.000000 1.000000 Br
0.000000 0.730622 1.000000 Br
0.000000 0.269378 1.000000 Br
0.000000 0.000000 0.269378 Br
0.230622 0.500000 0.000000 Br
0.500000 0.500000 0.730622 Br
0.769378 0.500000 1.000000 Br
0.500000 0.230622 1.000000 Br
0.500000 0.769378 1.000000 Br
0.500000 0.500000 0.269378 Br
0.230622 0.000000 0.500000 Br
0.500000 0.000000 0.230622 Br
0.769378 0.000000 0.500000 Br
0.500000 0.730622 0.500000 Br
0.500000 0.269378 0.500000 Br
0.500000 0.000000 0.769378 Br
