Cs8 In4 Cu1 Ag3 Br24
1.0
11.146117 0.000000 0.000000
-0.000000 11.146117 0.000000
0.000000 0.000000 11.146117
Cs In Cu Ag Br
8 4 1 3 24
direct
0.750000 0.750000 0.750000 Cs
0.250000 0.250000 0.250000 Cs
0.750000 0.250000 0.250000 Cs
0.250000 0.750000 0.750000 Cs
0.250000 0.750000 0.250000 Cs
0.750000 0.250000 0.750000 Cs
0.250000 0.250000 0.750000 Cs
0.750000 0.750000 0.250000 Cs
0.000000 0.000000 0.000000 In
0.000000 0.500000 0.500000 In
0.500000 0.000000 0.500000 In
0.500000 0.500000 0.000000 In
0.500000 0.000000 0.000000 Cu
0.500000 0.500000 0.500000 Ag
0.000000 0.000000 0.500000 Ag
0.000000 0.500000 0.000000 Ag
0.244005 0.000000 0.000000 Br
0.500000 0.000000 0.744005 Br
0.755995 0.000000 0.000000 Br
0.500000 0.744005 0.000000 Br
0.500000 0.255995 0.000000 Br
0.500000 0.000000 0.255995 Br
0.244005 0.500000 0.500000 Br
0.500000 0.500000 0.244005 Br
0.755995 0.500000 0.500000 Br
0.500000 0.244005 0.500000 Br
0.500000 0.755995 0.500000 Br
0.500000 0.500000 0.755995 Br
0.744005 0.000000 0.500000 Br
0.000000 0.000000 0.244005 Br
0.255995 0.000000 0.500000 Br
0.000000 0.744005 0.500000 Br
0.000000 0.255995 0.500000 Br
0.000000 0.000000 0.755995 Br
0.744005 0.500000 0.000000 Br
0.000000 0.500000 0.744005 Br
0.255995 0.500000 0.000000 Br
1.000000 0.244005 0.000000 Br
1.000000 0.755995 0.000000 Br
0.000000 0.500000 0.255995 Br
