Cs8 Sb4 Au4 I7 Br17
1.0
11.555598 0.000000 0.000000
-0.000000 11.555598 0.000000
0.000000 0.000000 11.555598
Cs Sb Au I Br
8 4 4 7 17
direct
0.750000 0.750000 0.750000 Cs
0.250000 0.250000 0.250000 Cs
0.750000 0.250000 0.250000 Cs
0.250000 0.750000 0.750000 Cs
0.250000 0.750000 0.250000 Cs
0.750000 0.250000 0.750000 Cs
0.250000 0.250000 0.750000 Cs
0.750000 0.750000 0.250000 Cs
0.000000 0.000000 0.000000 Sb
0.000000 0.500000 0.500000 Sb
0.500000 0.000000 0.500000 Sb
0.500000 0.500000 1.000000 Sb
0.500000 0.000000 1.000000 Au
0.500000 0.500000 0.500000 Au
0.000000 0.000000 0.500000 Au
0.000000 0.500000 1.000000 Au
0.500000 0.000000 0.752885 I
0.500000 0.752885 0.000000 I
0.500000 0.247115 1.000000 I
0.500000 0.000000 0.247115 I
0.500000 0.747115 0.500000 I
0.752885 0.500000 1.000000 I
0.247115 0.500000 1.000000 I
0.252885 0.000000 0.000000 Br
0.747115 0.000000 1.000000 Br
0.252885 0.500000 0.500000 Br
0.500000 0.500000 0.252885 Br
0.747115 0.500000 0.500000 Br
0.500000 0.252885 0.500000 Br
0.500000 0.500000 0.747115 Br
0.752885 0.000000 0.500000 Br
0.000000 0.000000 0.252885 Br
0.247115 0.000000 0.500000 Br
0.000000 0.752885 0.500000 Br
0.000000 0.247115 0.500000 Br
0.000000 0.000000 0.747115 Br
0.000000 0.500000 0.752885 Br
0.000000 0.252885 1.000000 Br
0.000000 0.747115 1.000000 Br
0.000000 0.500000 0.247115 Br
