pymatgen generated KPOINTS with grid density = 238 / atom
0
Monkhorst
2 2 2
