Cs8 Tl4 Ag2 Au2 I24
1.0
12.141857 0.000000 0.000000
-0.000000 12.141857 0.000000
0.000000 0.000000 12.141857
Cs Tl Ag Au I
8 4 2 2 24
direct
0.750000 0.750000 0.750000 Cs
0.250000 0.250000 0.250000 Cs
0.750000 0.250000 0.250000 Cs
0.250000 0.750000 0.750000 Cs
0.250000 0.750000 0.250000 Cs
0.750000 0.250000 0.750000 Cs
0.250000 0.250000 0.750000 Cs
0.750000 0.750000 0.250000 Cs
0.000000 0.000000 0.000000 Tl
0.000000 0.500000 0.500000 Tl
0.500000 0.000000 0.500000 Tl
0.500000 0.500000 1.000000 Tl
0.500000 0.500000 0.500000 Ag
0.000000 0.000000 0.500000 Ag
0.500000 0.000000 1.000000 Au
0.000000 0.500000 1.000000 Au
0.255763 0.000000 1.000000 I
0.500000 0.000000 0.755763 I
0.744237 0.000000 1.000000 I
0.500000 0.755763 0.000000 I
0.500000 0.244237 0.000000 I
0.500000 0.000000 0.244237 I
0.255763 0.500000 0.500000 I
0.500000 0.500000 0.255763 I
0.744237 0.500000 0.500000 I
0.500000 0.255763 0.500000 I
0.500000 0.744237 0.500000 I
0.500000 0.500000 0.744237 I
0.755763 0.000000 0.500000 I
0.000000 0.000000 0.255763 I
0.244237 0.000000 0.500000 I
0.000000 0.755763 0.500000 I
1.000000 0.244237 0.500000 I
0.000000 0.000000 0.744237 I
0.755763 0.500000 1.000000 I
0.000000 0.500000 0.755763 I
0.244237 0.500000 0.000000 I
0.000000 0.255763 1.000000 I
0.000000 0.744237 1.000000 I
0.000000 0.500000 0.244237 I
