Cs8 Cu3 Ag1 Bi4 Cl24
1.0
10.647229 0.000000 0.000000
-0.000000 10.647229 0.000000
0.000000 0.000000 10.647229
Cs Cu Ag Bi Cl
8 3 1 4 24
direct
0.250000 0.750000 0.250000 Cs
0.750000 0.750000 0.250000 Cs
0.250000 0.250000 0.750000 Cs
0.750000 0.250000 0.750000 Cs
0.750000 0.750000 0.750000 Cs
0.250000 0.750000 0.750000 Cs
0.750000 0.250000 0.250000 Cs
0.250000 0.250000 0.250000 Cs
0.500000 0.000000 1.000000 Cu
1.000000 0.500000 0.000000 Cu
0.000000 0.000000 0.500000 Cu
0.500000 0.500000 0.500000 Ag
1.000000 0.500000 0.500000 Bi
0.000000 0.000000 0.000000 Bi
0.500000 0.500000 1.000000 Bi
0.500000 0.000000 0.500000 Bi
0.500000 0.500000 0.249113 Cl
0.500000 0.749113 0.000000 Cl
0.500000 0.500000 0.750887 Cl
0.249113 0.500000 0.500000 Cl
0.750887 0.500000 0.500000 Cl
0.500000 0.750887 0.500000 Cl
0.500000 0.000000 0.749113 Cl
0.500000 0.249113 0.500000 Cl
0.500000 0.000000 0.250887 Cl
0.249113 0.000000 1.000000 Cl
0.750887 0.000000 0.000000 Cl
0.500000 0.250887 1.000000 Cl
1.000000 0.500000 0.749113 Cl
0.000000 0.749113 0.500000 Cl
1.000000 0.500000 0.250887 Cl
0.749113 0.500000 0.000000 Cl
0.250887 0.500000 0.000000 Cl
1.000000 0.750887 0.000000 Cl
0.000000 0.000000 0.249113 Cl
0.000000 0.249113 1.000000 Cl
0.000000 0.000000 0.750887 Cl
0.749113 0.000000 0.500000 Cl
0.250887 0.000000 0.500000 Cl
1.000000 0.250887 0.500000 Cl
