Cs8 Ag1 As4 Au3 Cl24
1.0
10.548794 0.000000 0.000000
-0.000000 10.548794 0.000000
0.000000 0.000000 10.548794
Cs Ag As Au Cl
8 1 4 3 24
direct
0.750000 0.750000 0.750000 Cs
0.250000 0.250000 0.250000 Cs
0.750000 0.250000 0.250000 Cs
0.250000 0.750000 0.750000 Cs
0.250000 0.750000 0.250000 Cs
0.750000 0.250000 0.750000 Cs
0.250000 0.250000 0.750000 Cs
0.750000 0.750000 0.250000 Cs
0.500000 0.000000 0.000000 Ag
0.000000 0.000000 0.000000 As
1.000000 0.500000 0.500000 As
0.500000 0.000000 0.500000 As
0.500000 0.500000 0.000000 As
0.500000 0.500000 0.500000 Au
0.000000 0.000000 0.500000 Au
1.000000 0.500000 0.000000 Au
0.241238 0.000000 0.000000 Cl
0.500000 0.000000 0.741238 Cl
0.758762 0.000000 1.000000 Cl
0.500000 0.741238 0.000000 Cl
0.500000 0.258762 1.000000 Cl
0.500000 0.000000 0.258762 Cl
0.241238 0.500000 0.500000 Cl
0.500000 0.500000 0.241238 Cl
0.758762 0.500000 0.500000 Cl
0.500000 0.241238 0.500000 Cl
0.500000 0.758762 0.500000 Cl
0.500000 0.500000 0.758762 Cl
0.741238 0.000000 0.500000 Cl
0.000000 0.000000 0.241238 Cl
0.258762 0.000000 0.500000 Cl
1.000000 0.741238 0.500000 Cl
1.000000 0.258762 0.500000 Cl
0.000000 0.000000 0.758762 Cl
0.741238 0.500000 0.000000 Cl
1.000000 0.500000 0.741238 Cl
0.258762 0.500000 0.000000 Cl
1.000000 0.241238 0.000000 Cl
0.000000 0.758762 0.000000 Cl
1.000000 0.500000 0.258762 Cl
