Cs8 In4 As4 I2 Br22
1.0
11.551078 0.000000 0.000000
-0.000000 11.551078 0.000000
0.000000 0.000000 11.551078
Cs In As I Br
8 4 4 2 22
direct
0.250000 0.250000 0.250000 Cs
0.750000 0.750000 0.750000 Cs
0.250000 0.750000 0.750000 Cs
0.750000 0.250000 0.250000 Cs
0.750000 0.250000 0.750000 Cs
0.250000 0.750000 0.250000 Cs
0.750000 0.750000 0.250000 Cs
0.250000 0.250000 0.750000 Cs
1.000000 0.500000 0.500000 In
0.000000 0.000000 0.000000 In
0.500000 0.500000 0.000000 In
0.500000 0.000000 0.500000 In
0.500000 0.500000 0.500000 As
0.500000 0.000000 0.000000 As
1.000000 0.500000 0.000000 As
0.000000 0.000000 0.500000 As
0.737594 0.500000 0.500000 I
1.000000 0.500000 0.762406 I
1.000000 0.500000 0.237594 Br
0.262406 0.500000 0.500000 Br
1.000000 0.237594 0.500000 Br
0.000000 0.762406 0.500000 Br
0.737594 0.000000 0.000000 Br
0.000000 0.000000 0.737594 Br
0.262406 0.000000 0.000000 Br
0.000000 0.737594 1.000000 Br
0.000000 0.262406 0.000000 Br
0.000000 0.000000 0.262406 Br
0.237594 0.500000 0.000000 Br
0.500000 0.500000 0.737594 Br
0.762406 0.500000 0.000000 Br
0.500000 0.237594 1.000000 Br
0.500000 0.762406 0.000000 Br
0.500000 0.500000 0.262406 Br
0.237594 0.000000 0.500000 Br
0.500000 0.000000 0.237594 Br
0.762406 0.000000 0.500000 Br
0.500000 0.737594 0.500000 Br
0.500000 0.262406 0.500000 Br
0.500000 0.000000 0.762406 Br
