Cs8 Ag4 Sb4 I7 Br17
1.0
11.597473 0.000000 0.000000
-0.000000 11.597473 0.000000
0.000000 0.000000 11.597473
Cs Ag Sb I Br
8 4 4 7 17
direct
0.750000 0.750000 0.250000 Cs
0.250000 0.750000 0.250000 Cs
0.750000 0.250000 0.750000 Cs
0.250000 0.250000 0.750000 Cs
0.250000 0.750000 0.750000 Cs
0.750000 0.750000 0.750000 Cs
0.250000 0.250000 0.250000 Cs
0.750000 0.250000 0.250000 Cs
1.000000 0.500000 0.500000 Ag
0.000000 0.000000 0.000000 Ag
0.500000 0.500000 1.000000 Ag
0.500000 0.000000 0.500000 Ag
0.500000 0.500000 0.500000 Sb
0.500000 0.000000 1.000000 Sb
1.000000 0.500000 0.000000 Sb
0.000000 0.000000 0.500000 Sb
1.000000 0.500000 0.749255 I
0.000000 0.000000 0.249255 I
0.500000 0.000000 0.250745 I
0.500000 0.750745 0.500000 I
0.749255 0.000000 0.500000 I
0.749255 0.500000 0.000000 I
0.500000 0.249255 0.500000 I
0.000000 0.000000 0.750745 Br
0.000000 0.750745 0.000000 Br
0.750745 0.500000 0.500000 Br
0.249255 0.000000 0.000000 Br
1.000000 0.749255 0.500000 Br
1.000000 0.500000 0.250745 Br
1.000000 0.250745 0.500000 Br
0.750745 0.000000 0.000000 Br
0.249255 0.500000 0.500000 Br
1.000000 0.249255 0.000000 Br
0.500000 0.500000 0.249255 Br
0.250745 0.500000 0.000000 Br
0.500000 0.749255 0.000000 Br
0.500000 0.500000 0.750745 Br
0.500000 0.250745 0.000000 Br
0.500000 0.000000 0.749255 Br
0.250745 0.000000 0.500000 Br
