Cs8 Tl4 Ga2 As2 I24
1.0
12.377169 0.000000 0.000000
-0.000000 12.377169 0.000000
0.000000 0.000000 12.377169
Cs Tl Ga As I
8 4 2 2 24
direct
0.250000 0.750000 0.250000 Cs
0.750000 0.250000 0.750000 Cs
0.250000 0.250000 0.750000 Cs
0.750000 0.750000 0.250000 Cs
0.750000 0.750000 0.750000 Cs
0.250000 0.250000 0.250000 Cs
0.750000 0.250000 0.250000 Cs
0.250000 0.750000 0.750000 Cs
0.000000 0.000000 0.500000 Tl
0.000000 0.500000 0.000000 Tl
0.500000 0.000000 0.000000 Tl
0.500000 0.500000 0.500000 Tl
0.500000 0.000000 0.500000 Ga
0.000000 0.500000 0.500000 Ga
0.500000 0.500000 0.000000 As
0.000000 0.000000 0.000000 As
0.729899 0.000000 0.500000 I
0.000000 0.000000 0.229899 I
0.270101 0.000000 0.500000 I
1.000000 0.729899 0.500000 I
0.000000 0.270101 0.500000 I
0.000000 0.000000 0.770101 I
0.729899 0.500000 1.000000 I
0.000000 0.500000 0.729899 I
0.270101 0.500000 0.000000 I
0.000000 0.229899 0.000000 I
0.000000 0.770101 0.000000 I
0.000000 0.500000 0.270101 I
0.229899 0.000000 1.000000 I
0.500000 0.000000 0.729899 I
0.770101 0.000000 1.000000 I
0.500000 0.729899 0.000000 I
0.500000 0.270101 0.000000 I
0.500000 0.000000 0.270101 I
0.229899 0.500000 0.500000 I
0.500000 0.500000 0.229899 I
0.770101 0.500000 0.500000 I
0.500000 0.229899 0.500000 I
0.500000 0.770101 0.500000 I
0.500000 0.500000 0.770101 I
