Cs8 Tl8 Br6 Cl18
1.0
11.494412 0.000000 0.000000
-0.000000 11.494412 0.000000
0.000000 0.000000 11.494412
Cs Tl Br Cl
8 8 6 18
direct
0.750000 0.750000 0.750000 Cs
0.250000 0.250000 0.250000 Cs
0.750000 0.250000 0.250000 Cs
0.250000 0.750000 0.750000 Cs
0.250000 0.750000 0.250000 Cs
0.750000 0.250000 0.750000 Cs
0.250000 0.250000 0.750000 Cs
0.750000 0.750000 0.250000 Cs
0.500000 0.000000 0.000000 Tl
0.000000 0.000000 0.000000 Tl
0.500000 0.500000 0.500000 Tl
1.000000 0.500000 0.500000 Tl
0.000000 0.000000 0.500000 Tl
0.500000 0.000000 0.500000 Tl
1.000000 0.500000 0.000000 Tl
0.500000 0.500000 0.000000 Tl
0.500000 0.267264 0.000000 Br
0.500000 0.767264 0.500000 Br
0.500000 0.500000 0.767264 Br
0.000000 0.000000 0.232736 Br
1.000000 0.732736 0.500000 Br
1.000000 0.267264 0.500000 Br
0.232736 0.000000 1.000000 Cl
0.500000 0.000000 0.732736 Cl
0.767264 0.000000 0.000000 Cl
0.500000 0.732736 0.000000 Cl
0.500000 0.000000 0.267264 Cl
0.232736 0.500000 0.500000 Cl
0.500000 0.500000 0.232736 Cl
0.767264 0.500000 0.500000 Cl
0.500000 0.232736 0.500000 Cl
0.732736 0.000000 0.500000 Cl
0.267264 0.000000 0.500000 Cl
0.000000 0.000000 0.767264 Cl
0.732736 0.500000 0.000000 Cl
1.000000 0.500000 0.732736 Cl
0.267264 0.500000 0.000000 Cl
1.000000 0.232736 0.000000 Cl
0.000000 0.767264 0.000000 Cl
1.000000 0.500000 0.267264 Cl
