Cs8 In2 Ag4 Sb2 Cl24
1.0
10.766682 0.000000 0.000000
-0.000000 10.766682 0.000000
0.000000 0.000000 10.766682
Cs In Ag Sb Cl
8 2 4 2 24
direct
0.750000 0.750000 0.750000 Cs
0.250000 0.250000 0.250000 Cs
0.750000 0.250000 0.250000 Cs
0.250000 0.750000 0.750000 Cs
0.250000 0.750000 0.250000 Cs
0.750000 0.250000 0.750000 Cs
0.250000 0.250000 0.750000 Cs
0.750000 0.750000 0.250000 Cs
1.000000 0.500000 0.500000 In
0.500000 0.500000 0.000000 In
0.500000 0.000000 0.000000 Ag
0.500000 0.500000 0.500000 Ag
0.000000 0.000000 0.500000 Ag
1.000000 0.500000 0.000000 Ag
0.000000 0.000000 0.000000 Sb
0.500000 0.000000 0.500000 Sb
0.240636 0.000000 0.000000 Cl
0.500000 0.000000 0.740636 Cl
0.759364 0.000000 0.000000 Cl
0.500000 0.740636 0.000000 Cl
0.500000 0.259364 0.000000 Cl
0.500000 0.000000 0.259364 Cl
0.240636 0.500000 0.500000 Cl
0.500000 0.500000 0.240636 Cl
0.759364 0.500000 0.500000 Cl
0.500000 0.240636 0.500000 Cl
0.500000 0.759364 0.500000 Cl
0.500000 0.500000 0.759364 Cl
0.740636 0.000000 0.500000 Cl
0.000000 0.000000 0.240636 Cl
0.259364 0.000000 0.500000 Cl
1.000000 0.740636 0.500000 Cl
1.000000 0.259364 0.500000 Cl
0.000000 0.000000 0.759364 Cl
0.740636 0.500000 0.000000 Cl
1.000000 0.500000 0.740636 Cl
0.259364 0.500000 0.000000 Cl
1.000000 0.240636 0.000000 Cl
1.000000 0.759364 0.000000 Cl
1.000000 0.500000 0.259364 Cl
