Cs8 Ag4 Sb4 Br22 Cl2
1.0
11.353307 0.000000 0.000000
-0.000000 11.353307 0.000000
0.000000 0.000000 11.353307
Cs Ag Sb Br Cl
8 4 4 22 2
direct
0.750000 0.250000 0.750000 Cs
0.250000 0.750000 0.250000 Cs
0.750000 0.750000 0.250000 Cs
0.250000 0.250000 0.750000 Cs
0.250000 0.250000 0.250000 Cs
0.750000 0.750000 0.750000 Cs
0.250000 0.750000 0.750000 Cs
0.750000 0.250000 0.250000 Cs
0.000000 0.000000 0.500000 Ag
1.000000 0.500000 0.000000 Ag
0.500000 0.000000 0.000000 Ag
0.500000 0.500000 0.500000 Ag
0.500000 0.000000 0.500000 Sb
0.500000 0.500000 0.000000 Sb
0.000000 0.000000 0.000000 Sb
1.000000 0.500000 0.500000 Sb
0.253603 0.000000 0.500000 Br
1.000000 0.253603 0.500000 Br
0.746397 0.000000 0.500000 Br
0.000000 0.000000 0.753603 Br
0.000000 0.000000 0.246397 Br
0.000000 0.746397 0.500000 Br
0.253603 0.500000 0.000000 Br
1.000000 0.753603 0.000000 Br
0.746397 0.500000 0.000000 Br
1.000000 0.500000 0.253603 Br
1.000000 0.500000 0.746397 Br
1.000000 0.246397 0.000000 Br
0.753603 0.000000 1.000000 Br
0.500000 0.253603 1.000000 Br
0.246397 0.000000 0.000000 Br
0.500000 0.000000 0.253603 Br
0.500000 0.000000 0.746397 Br
0.500000 0.746397 0.000000 Br
0.753603 0.500000 0.500000 Br
0.500000 0.753603 0.500000 Br
0.500000 0.500000 0.753603 Br
0.500000 0.500000 0.246397 Br
0.246397 0.500000 0.500000 Cl
0.500000 0.246397 0.500000 Cl
