Cs8 In3 Cu4 Sb1 Br24
1.0
10.942616 0.000000 0.000000
-0.000000 10.942616 0.000000
0.000000 0.000000 10.942616
Cs In Cu Sb Br
8 3 4 1 24
direct
0.750000 0.250000 0.750000 Cs
0.250000 0.250000 0.750000 Cs
0.750000 0.750000 0.250000 Cs
0.250000 0.750000 0.250000 Cs
0.250000 0.250000 0.250000 Cs
0.750000 0.250000 0.250000 Cs
0.250000 0.750000 0.750000 Cs
0.750000 0.750000 0.750000 Cs
1.000000 0.500000 0.500000 In
0.500000 0.000000 0.500000 In
0.500000 0.500000 1.000000 In
0.500000 0.500000 0.500000 Cu
0.500000 0.000000 1.000000 Cu
1.000000 0.500000 0.000000 Cu
0.000000 0.000000 0.500000 Cu
0.000000 0.000000 0.000000 Sb
0.500000 0.000000 0.242702 Br
0.257298 0.000000 0.000000 Br
0.500000 0.000000 0.757298 Br
0.500000 0.257298 0.500000 Br
0.500000 0.242702 1.000000 Br
0.742702 0.000000 1.000000 Br
0.500000 0.500000 0.742702 Br
0.257298 0.500000 0.500000 Br
0.500000 0.500000 0.257298 Br
0.500000 0.757298 0.000000 Br
0.500000 0.742702 0.500000 Br
0.742702 0.500000 0.500000 Br
0.000000 0.000000 0.742702 Br
0.757298 0.000000 0.500000 Br
0.000000 0.000000 0.257298 Br
0.000000 0.257298 0.000000 Br
0.000000 0.242702 0.500000 Br
0.242702 0.000000 0.500000 Br
1.000000 0.500000 0.242702 Br
0.757298 0.500000 0.000000 Br
1.000000 0.500000 0.757298 Br
1.000000 0.757298 0.500000 Br
1.000000 0.742702 0.000000 Br
0.242702 0.500000 0.000000 Br
