Cs8 Tl4 As4 I12 Br12
1.0
12.049025 0.000000 0.000000
-0.000000 12.049025 0.000000
0.000000 0.000000 12.049025
Cs Tl As I Br
8 4 4 12 12
direct
0.250000 0.250000 0.250000 Cs
0.750000 0.750000 0.750000 Cs
0.250000 0.750000 0.750000 Cs
0.750000 0.250000 0.250000 Cs
0.750000 0.250000 0.750000 Cs
0.250000 0.750000 0.250000 Cs
0.750000 0.750000 0.250000 Cs
0.250000 0.250000 0.750000 Cs
0.000000 0.500000 0.500000 Tl
0.000000 0.000000 0.000000 Tl
0.500000 0.500000 0.000000 Tl
0.500000 0.000000 0.500000 Tl
0.500000 0.500000 0.500000 As
0.500000 0.000000 0.000000 As
0.000000 0.500000 0.000000 As
0.000000 0.000000 0.500000 As
0.000000 0.500000 0.229766 I
1.000000 0.229766 0.500000 I
0.000000 0.000000 0.729766 I
0.270234 0.000000 0.000000 I
1.000000 0.729766 0.000000 I
0.229766 0.500000 0.000000 I
0.500000 0.500000 0.729766 I
0.500000 0.000000 0.229766 I
0.770234 0.000000 0.500000 I
0.500000 0.729766 0.500000 I
0.500000 0.270234 0.500000 I
0.500000 0.000000 0.770234 I
0.729766 0.500000 0.500000 Br
0.270234 0.500000 0.500000 Br
1.000000 0.770234 0.500000 Br
0.000000 0.500000 0.770234 Br
0.729766 0.000000 0.000000 Br
0.000000 0.270234 0.000000 Br
0.000000 0.000000 0.270234 Br
0.770234 0.500000 1.000000 Br
0.500000 0.229766 0.000000 Br
0.500000 0.770234 0.000000 Br
0.500000 0.500000 0.270234 Br
0.229766 0.000000 0.500000 Br
