Cs8 In4 Ga4 Br12 Cl12
1.0
11.198021 0.000000 0.000000
-0.000000 11.198021 0.000000
0.000000 0.000000 11.198021
Cs In Ga Br Cl
8 4 4 12 12
direct
0.250000 0.250000 0.250000 Cs
0.750000 0.750000 0.750000 Cs
0.250000 0.750000 0.750000 Cs
0.750000 0.250000 0.250000 Cs
0.750000 0.250000 0.750000 Cs
0.250000 0.750000 0.250000 Cs
0.750000 0.750000 0.250000 Cs
0.250000 0.250000 0.750000 Cs
0.000000 0.500000 0.500000 In
0.000000 0.000000 0.000000 In
0.500000 0.500000 0.000000 In
0.500000 0.000000 0.500000 In
0.500000 0.500000 0.500000 Ga
0.500000 0.000000 0.000000 Ga
0.000000 0.500000 0.000000 Ga
0.000000 0.000000 0.500000 Ga
0.761067 0.500000 0.500000 Br
1.000000 0.261067 0.500000 Br
1.000000 0.738933 0.500000 Br
0.238933 0.000000 1.000000 Br
0.000000 0.761067 1.000000 Br
1.000000 0.238933 0.000000 Br
0.000000 0.000000 0.238933 Br
0.738933 0.500000 1.000000 Br
0.500000 0.738933 0.000000 Br
0.738933 0.000000 0.500000 Br
0.500000 0.761067 0.500000 Br
0.500000 0.238933 0.500000 Br
0.000000 0.500000 0.261067 Cl
0.238933 0.500000 0.500000 Cl
0.000000 0.500000 0.738933 Cl
0.761067 0.000000 1.000000 Cl
0.000000 0.000000 0.761067 Cl
0.261067 0.500000 0.000000 Cl
0.500000 0.500000 0.761067 Cl
0.500000 0.261067 0.000000 Cl
0.500000 0.500000 0.238933 Cl
0.261067 0.000000 0.500000 Cl
0.500000 0.000000 0.261067 Cl
0.500000 0.000000 0.738933 Cl
