Cs8 Tl1 Ag3 Sb4 Cl24
1.0
10.883328 0.000000 0.000000
-0.000000 10.883328 0.000000
0.000000 0.000000 10.883328
Cs Tl Ag Sb Cl
8 1 3 4 24
direct
0.250000 0.750000 0.250000 Cs
0.750000 0.250000 0.750000 Cs
0.250000 0.250000 0.750000 Cs
0.750000 0.750000 0.250000 Cs
0.750000 0.750000 0.750000 Cs
0.250000 0.250000 0.250000 Cs
0.750000 0.250000 0.250000 Cs
0.250000 0.750000 0.750000 Cs
0.500000 0.000000 0.000000 Tl
0.000000 0.000000 0.500000 Ag
0.000000 0.500000 0.000000 Ag
0.500000 0.500000 0.500000 Ag
0.500000 0.000000 0.500000 Sb
0.500000 0.500000 0.000000 Sb
0.000000 0.000000 0.000000 Sb
0.000000 0.500000 0.500000 Sb
0.732710 0.000000 0.500000 Cl
0.000000 0.000000 0.232710 Cl
0.267290 0.000000 0.500000 Cl
0.000000 0.732710 0.500000 Cl
0.000000 0.267290 0.500000 Cl
0.000000 0.000000 0.767290 Cl
0.732710 0.500000 1.000000 Cl
0.000000 0.500000 0.732710 Cl
0.267290 0.500000 1.000000 Cl
1.000000 0.232710 0.000000 Cl
1.000000 0.767290 0.000000 Cl
0.000000 0.500000 0.267290 Cl
0.232710 0.000000 0.000000 Cl
0.500000 0.000000 0.732710 Cl
0.767290 0.000000 1.000000 Cl
0.500000 0.732710 0.000000 Cl
0.500000 0.267290 1.000000 Cl
0.500000 0.000000 0.267290 Cl
0.232710 0.500000 0.500000 Cl
0.500000 0.500000 0.232710 Cl
0.767290 0.500000 0.500000 Cl
0.500000 0.232710 0.500000 Cl
0.500000 0.767290 0.500000 Cl
0.500000 0.500000 0.767290 Cl
