Cs8 Sb2 As2 Au4 Br24
1.0
11.211129 0.000000 0.000000
-0.000000 11.211129 0.000000
0.000000 0.000000 11.211129
Cs Sb As Au Br
8 2 2 4 24
direct
0.750000 0.750000 0.750000 Cs
0.250000 0.250000 0.250000 Cs
0.750000 0.250000 0.250000 Cs
0.250000 0.750000 0.750000 Cs
0.250000 0.750000 0.250000 Cs
0.750000 0.250000 0.750000 Cs
0.250000 0.250000 0.750000 Cs
0.750000 0.750000 0.250000 Cs
0.000000 0.000000 0.000000 Sb
0.000000 0.500000 0.500000 Sb
0.500000 0.000000 0.500000 As
0.500000 0.500000 0.000000 As
0.500000 0.000000 0.000000 Au
0.500000 0.500000 0.500000 Au
0.000000 0.000000 0.500000 Au
0.000000 0.500000 0.000000 Au
0.250090 0.000000 1.000000 Br
0.500000 0.000000 0.750090 Br
0.749910 0.000000 1.000000 Br
0.500000 0.750090 0.000000 Br
0.500000 0.249910 1.000000 Br
0.500000 0.000000 0.249910 Br
0.250090 0.500000 0.500000 Br
0.500000 0.500000 0.250090 Br
0.749910 0.500000 0.500000 Br
0.500000 0.250090 0.500000 Br
0.500000 0.749910 0.500000 Br
0.500000 0.500000 0.749910 Br
0.750090 0.000000 0.500000 Br
0.000000 0.000000 0.250090 Br
0.249910 0.000000 0.500000 Br
1.000000 0.750090 0.500000 Br
1.000000 0.249910 0.500000 Br
0.000000 0.000000 0.749910 Br
0.750090 0.500000 0.000000 Br
0.000000 0.500000 0.750090 Br
0.249910 0.500000 0.000000 Br
1.000000 0.250090 0.000000 Br
0.000000 0.749910 1.000000 Br
0.000000 0.500000 0.249910 Br
