Cs8 Sc4 Au4 I12 Br12
1.0
11.544887 0.000000 0.000000
-0.000000 11.544887 0.000000
0.000000 0.000000 11.544887
Cs Sc Au I Br
8 4 4 12 12
direct
0.750000 0.750000 0.750000 Cs
0.250000 0.250000 0.250000 Cs
0.750000 0.250000 0.250000 Cs
0.250000 0.750000 0.750000 Cs
0.250000 0.750000 0.250000 Cs
0.750000 0.250000 0.750000 Cs
0.250000 0.250000 0.750000 Cs
0.750000 0.750000 0.250000 Cs
0.000000 0.000000 0.000000 Sc
0.000000 0.500000 0.500000 Sc
0.500000 0.000000 0.500000 Sc
0.500000 0.500000 0.000000 Sc
0.500000 0.000000 0.000000 Au
0.500000 0.500000 0.500000 Au
0.000000 0.000000 0.500000 Au
0.000000 0.500000 0.000000 Au
0.500000 0.745047 0.000000 I
0.500000 0.254953 0.000000 I
0.500000 0.000000 0.254953 I
0.754953 0.500000 0.500000 I
0.500000 0.245047 0.500000 I
0.745047 0.000000 0.500000 I
0.000000 0.000000 0.245047 I
0.000000 0.254953 0.500000 I
0.000000 0.000000 0.754953 I
0.000000 0.500000 0.745047 I
0.254953 0.500000 0.000000 I
0.000000 0.500000 0.254953 I
0.245047 0.000000 1.000000 Br
0.500000 0.000000 0.745047 Br
0.754953 0.000000 1.000000 Br
0.245047 0.500000 0.500000 Br
0.500000 0.500000 0.245047 Br
0.500000 0.754953 0.500000 Br
0.500000 0.500000 0.754953 Br
0.254953 0.000000 0.500000 Br
1.000000 0.745047 0.500000 Br
0.745047 0.500000 0.000000 Br
0.000000 0.245047 1.000000 Br
0.000000 0.754953 0.000000 Br
