Cs8 Tl2 Cu4 Bi2 Br24
1.0
11.125526 0.000000 0.000000
-0.000000 11.125526 0.000000
0.000000 0.000000 11.125526
Cs Tl Cu Bi Br
8 2 4 2 24
direct
0.750000 0.750000 0.750000 Cs
0.250000 0.250000 0.250000 Cs
0.750000 0.250000 0.250000 Cs
0.250000 0.750000 0.750000 Cs
0.250000 0.750000 0.250000 Cs
0.750000 0.250000 0.750000 Cs
0.250000 0.250000 0.750000 Cs
0.750000 0.750000 0.250000 Cs
0.000000 0.000000 0.000000 Tl
0.500000 0.500000 1.000000 Tl
0.500000 0.000000 1.000000 Cu
0.500000 0.500000 0.500000 Cu
0.000000 0.000000 0.500000 Cu
1.000000 0.500000 1.000000 Cu
1.000000 0.500000 0.500000 Bi
0.500000 0.000000 0.500000 Bi
0.263140 0.000000 1.000000 Br
0.500000 0.000000 0.763140 Br
0.736860 0.000000 1.000000 Br
0.500000 0.763140 0.000000 Br
0.500000 0.236860 1.000000 Br
0.500000 0.000000 0.236860 Br
0.263140 0.500000 0.500000 Br
0.500000 0.500000 0.263140 Br
0.736860 0.500000 0.500000 Br
0.500000 0.263140 0.500000 Br
0.500000 0.736860 0.500000 Br
0.500000 0.500000 0.736860 Br
0.763140 0.000000 0.500000 Br
0.000000 0.000000 0.263140 Br
0.236860 0.000000 0.500000 Br
1.000000 0.763140 0.500000 Br
0.000000 0.236860 0.500000 Br
0.000000 0.000000 0.736860 Br
0.763140 0.500000 1.000000 Br
1.000000 0.500000 0.763140 Br
0.236860 0.500000 0.000000 Br
0.000000 0.263140 1.000000 Br
0.000000 0.736860 1.000000 Br
1.000000 0.500000 0.236860 Br
