pymatgen generated KPOINTS with grid density = 342 / atom
0
Monkhorst
2 2 2
