Cs8 In4 Ga1 Sb3 Cl24
1.0
11.322542 0.000000 0.000000
-0.000000 11.322542 0.000000
0.000000 0.000000 11.322542
Cs In Ga Sb Cl
8 4 1 3 24
direct
0.750000 0.750000 0.750000 Cs
0.250000 0.250000 0.250000 Cs
0.750000 0.250000 0.250000 Cs
0.250000 0.750000 0.750000 Cs
0.250000 0.750000 0.250000 Cs
0.750000 0.250000 0.750000 Cs
0.250000 0.250000 0.750000 Cs
0.750000 0.750000 0.250000 Cs
0.500000 0.000000 1.000000 In
0.500000 0.500000 0.500000 In
0.000000 0.000000 0.500000 In
1.000000 0.500000 1.000000 In
0.500000 0.500000 1.000000 Ga
0.000000 0.000000 0.000000 Sb
1.000000 0.500000 0.500000 Sb
0.500000 0.000000 0.500000 Sb
0.265221 0.000000 1.000000 Cl
0.500000 0.000000 0.765221 Cl
0.734779 0.000000 1.000000 Cl
0.500000 0.765221 0.000000 Cl
0.500000 0.234779 0.000000 Cl
0.500000 0.000000 0.234779 Cl
0.265221 0.500000 0.500000 Cl
0.500000 0.500000 0.265221 Cl
0.734779 0.500000 0.500000 Cl
0.500000 0.265221 0.500000 Cl
0.500000 0.734779 0.500000 Cl
0.500000 0.500000 0.734779 Cl
0.765221 0.000000 0.500000 Cl
0.000000 0.000000 0.265221 Cl
0.234779 0.000000 0.500000 Cl
0.000000 0.765221 0.500000 Cl
0.000000 0.234779 0.500000 Cl
0.000000 0.000000 0.734779 Cl
0.765221 0.500000 1.000000 Cl
1.000000 0.500000 0.765221 Cl
0.234779 0.500000 1.000000 Cl
0.000000 0.265221 0.000000 Cl
0.000000 0.734779 0.000000 Cl
1.000000 0.500000 0.234779 Cl
