Cs8 Ga1 Cu4 Bi3 Cl24
1.0
10.503073 0.000000 0.000000
-0.000000 10.503073 0.000000
0.000000 0.000000 10.503073
Cs Ga Cu Bi Cl
8 1 4 3 24
direct
0.750000 0.750000 0.750000 Cs
0.250000 0.250000 0.250000 Cs
0.750000 0.250000 0.250000 Cs
0.250000 0.750000 0.750000 Cs
0.250000 0.750000 0.250000 Cs
0.750000 0.250000 0.750000 Cs
0.250000 0.250000 0.750000 Cs
0.750000 0.750000 0.250000 Cs
0.500000 0.500000 1.000000 Ga
0.500000 0.000000 1.000000 Cu
0.500000 0.500000 0.500000 Cu
0.000000 0.000000 0.500000 Cu
0.000000 0.500000 1.000000 Cu
0.000000 0.000000 0.000000 Bi
0.000000 0.500000 0.500000 Bi
0.500000 0.000000 0.500000 Bi
0.259135 0.000000 1.000000 Cl
0.500000 0.000000 0.759135 Cl
0.740865 0.000000 1.000000 Cl
0.500000 0.759135 0.000000 Cl
0.500000 0.240865 1.000000 Cl
0.500000 0.000000 0.240865 Cl
0.259135 0.500000 0.500000 Cl
0.500000 0.500000 0.259135 Cl
0.740865 0.500000 0.500000 Cl
0.500000 0.259135 0.500000 Cl
0.500000 0.740865 0.500000 Cl
0.500000 0.500000 0.740865 Cl
0.759135 0.000000 0.500000 Cl
0.000000 0.000000 0.259135 Cl
0.240865 0.000000 0.500000 Cl
0.000000 0.759135 0.500000 Cl
1.000000 0.240865 0.500000 Cl
0.000000 0.000000 0.740865 Cl
0.759135 0.500000 1.000000 Cl
0.000000 0.500000 0.759135 Cl
0.240865 0.500000 0.000000 Cl
0.000000 0.259135 1.000000 Cl
1.000000 0.740865 0.000000 Cl
0.000000 0.500000 0.240865 Cl
