Cs8 Tl4 In2 Bi2 Cl24
1.0
11.421519 0.000000 0.000000
-0.000000 11.421519 0.000000
0.000000 0.000000 11.421519
Cs Tl In Bi Cl
8 4 2 2 24
direct
0.750000 0.750000 0.750000 Cs
0.250000 0.250000 0.250000 Cs
0.750000 0.250000 0.250000 Cs
0.250000 0.750000 0.750000 Cs
0.250000 0.750000 0.250000 Cs
0.750000 0.250000 0.750000 Cs
0.250000 0.250000 0.750000 Cs
0.750000 0.750000 0.250000 Cs
0.500000 0.000000 0.000000 Tl
0.500000 0.500000 0.500000 Tl
0.000000 0.000000 0.500000 Tl
1.000000 0.500000 0.000000 Tl
0.000000 0.000000 0.000000 In
0.500000 0.500000 0.000000 In
1.000000 0.500000 0.500000 Bi
0.500000 0.000000 0.500000 Bi
0.226978 0.000000 0.000000 Cl
0.500000 0.000000 0.726978 Cl
0.773022 0.000000 0.000000 Cl
0.500000 0.726978 0.000000 Cl
0.500000 0.273022 0.000000 Cl
0.500000 0.000000 0.273022 Cl
0.226978 0.500000 0.500000 Cl
0.500000 0.500000 0.226978 Cl
0.773022 0.500000 0.500000 Cl
0.500000 0.226978 0.500000 Cl
0.500000 0.773022 0.500000 Cl
0.500000 0.500000 0.773022 Cl
0.726978 0.000000 0.500000 Cl
0.000000 0.000000 0.226978 Cl
0.273022 0.000000 0.500000 Cl
0.000000 0.726978 0.500000 Cl
1.000000 0.273022 0.500000 Cl
0.000000 0.000000 0.773022 Cl
0.726978 0.500000 0.000000 Cl
1.000000 0.500000 0.726978 Cl
0.273022 0.500000 0.000000 Cl
1.000000 0.226978 0.000000 Cl
1.000000 0.773022 0.000000 Cl
1.000000 0.500000 0.273022 Cl
