Cs8 Ag4 Sb4 I23 Br1
1.0
12.102539 0.000000 0.000000
-0.000000 12.102539 0.000000
0.000000 0.000000 12.102539
Cs Ag Sb I Br
8 4 4 23 1
direct
0.250000 0.250000 0.750000 Cs
0.750000 0.250000 0.750000 Cs
0.250000 0.750000 0.250000 Cs
0.750000 0.750000 0.250000 Cs
0.750000 0.250000 0.250000 Cs
0.250000 0.250000 0.250000 Cs
0.750000 0.750000 0.750000 Cs
0.250000 0.750000 0.750000 Cs
0.500000 0.000000 0.000000 Ag
0.500000 0.500000 0.500000 Ag
0.000000 0.000000 0.500000 Ag
1.000000 0.500000 0.000000 Ag
0.000000 0.000000 0.000000 Sb
1.000000 0.500000 0.500000 Sb
0.500000 0.000000 0.500000 Sb
0.500000 0.500000 0.000000 Sb
0.500000 0.000000 0.750745 I
0.500000 0.250745 0.500000 I
0.500000 0.500000 0.749255 I
0.250745 0.000000 0.000000 I
0.749255 0.500000 0.500000 I
0.500000 0.249255 0.000000 I
0.500000 0.500000 0.250745 I
0.500000 0.750745 0.000000 I
0.500000 0.000000 0.249255 I
0.250745 0.500000 0.500000 I
0.749255 0.000000 0.000000 I
0.500000 0.749255 0.500000 I
0.000000 0.000000 0.250745 I
1.000000 0.250745 0.000000 I
1.000000 0.500000 0.249255 I
0.750745 0.000000 0.500000 I
0.249255 0.500000 0.000000 I
1.000000 0.249255 0.500000 I
1.000000 0.500000 0.750745 I
0.000000 0.750745 0.500000 I
0.000000 0.000000 0.749255 I
0.750745 0.500000 0.000000 I
0.249255 0.000000 0.500000 I
1.000000 0.749255 0.000000 Br
