Cs8 Ga2 Ag4 Bi2 I24
1.0
12.028502 0.000000 0.000000
-0.000000 12.028502 0.000000
0.000000 0.000000 12.028502
Cs Ga Ag Bi I
8 2 4 2 24
direct
0.750000 0.750000 0.750000 Cs
0.250000 0.250000 0.250000 Cs
0.750000 0.250000 0.250000 Cs
0.250000 0.750000 0.750000 Cs
0.250000 0.750000 0.250000 Cs
0.750000 0.250000 0.750000 Cs
0.250000 0.250000 0.750000 Cs
0.750000 0.750000 0.250000 Cs
0.000000 0.000000 0.000000 Ga
1.000000 0.500000 0.500000 Ga
0.500000 0.000000 0.000000 Ag
0.500000 0.500000 0.500000 Ag
0.000000 0.000000 0.500000 Ag
1.000000 0.500000 0.000000 Ag
0.500000 0.000000 0.500000 Bi
0.500000 0.500000 0.000000 Bi
0.244350 0.000000 0.000000 I
0.500000 0.000000 0.744350 I
0.755649 0.000000 0.000000 I
0.500000 0.744350 0.000000 I
0.500000 0.255650 0.000000 I
0.500000 0.000000 0.255650 I
0.244350 0.500000 0.500000 I
0.500000 0.500000 0.244350 I
0.755649 0.500000 0.500000 I
0.500000 0.244350 0.500000 I
0.500000 0.755649 0.500000 I
0.500000 0.500000 0.755650 I
0.744350 0.000000 0.500000 I
0.000000 0.000000 0.244350 I
0.255650 0.000000 0.500000 I
1.000000 0.744350 0.500000 I
1.000000 0.255650 0.500000 I
0.000000 0.000000 0.755649 I
0.744350 0.500000 0.000000 I
1.000000 0.500000 0.744350 I
0.255650 0.500000 0.000000 I
1.000000 0.244350 0.000000 I
1.000000 0.755649 0.000000 I
1.000000 0.500000 0.255650 I
