Cs8 In1 Ag3 As4 Cl24
1.0
10.599420 0.000000 0.000000
-0.000000 10.599420 0.000000
0.000000 0.000000 10.599420
Cs In Ag As Cl
8 1 3 4 24
direct
0.750000 0.750000 0.750000 Cs
0.250000 0.250000 0.250000 Cs
0.750000 0.250000 0.250000 Cs
0.250000 0.750000 0.750000 Cs
0.250000 0.750000 0.250000 Cs
0.750000 0.250000 0.750000 Cs
0.250000 0.250000 0.750000 Cs
0.750000 0.750000 0.250000 Cs
1.000000 0.500000 0.000000 In
0.500000 0.000000 0.000000 Ag
0.500000 0.500000 0.500000 Ag
0.000000 0.000000 0.500000 Ag
0.000000 0.000000 0.000000 As
1.000000 0.500000 0.500000 As
0.500000 0.000000 0.500000 As
0.500000 0.500000 0.000000 As
0.229991 0.000000 0.000000 Cl
0.500000 0.000000 0.729991 Cl
0.770009 0.000000 0.000000 Cl
0.500000 0.729991 0.000000 Cl
0.500000 0.270009 0.000000 Cl
0.500000 0.000000 0.270009 Cl
0.229991 0.500000 0.500000 Cl
0.500000 0.500000 0.229991 Cl
0.770009 0.500000 0.500000 Cl
0.500000 0.229991 0.500000 Cl
0.500000 0.770009 0.500000 Cl
0.500000 0.500000 0.770009 Cl
0.729991 0.000000 0.500000 Cl
0.000000 0.000000 0.229991 Cl
0.270009 0.000000 0.500000 Cl
1.000000 0.729991 0.500000 Cl
1.000000 0.270009 0.500000 Cl
0.000000 0.000000 0.770009 Cl
0.729991 0.500000 0.000000 Cl
1.000000 0.500000 0.729991 Cl
0.270009 0.500000 0.000000 Cl
1.000000 0.229991 0.000000 Cl
1.000000 0.770009 0.000000 Cl
1.000000 0.500000 0.270009 Cl
