Cs8 In3 Ga1 Ag4 I24
1.0
12.017008 0.000000 0.000000
-0.000000 12.017008 0.000000
0.000000 0.000000 12.017008
Cs In Ga Ag I
8 3 1 4 24
direct
0.750000 0.750000 0.750000 Cs
0.250000 0.250000 0.250000 Cs
0.750000 0.250000 0.250000 Cs
0.250000 0.750000 0.750000 Cs
0.250000 0.750000 0.250000 Cs
0.750000 0.250000 0.750000 Cs
0.250000 0.250000 0.750000 Cs
0.750000 0.750000 0.250000 Cs
0.000000 0.000000 0.000000 In
1.000000 0.500000 0.500000 In
0.500000 0.500000 1.000000 In
0.500000 0.000000 0.500000 Ga
0.500000 0.000000 1.000000 Ag
0.500000 0.500000 0.500000 Ag
0.000000 0.000000 0.500000 Ag
1.000000 0.500000 0.000000 Ag
0.244351 0.000000 1.000000 I
0.500000 0.000000 0.744351 I
0.755649 0.000000 0.000000 I
0.500000 0.744351 1.000000 I
0.500000 0.255649 1.000000 I
0.500000 0.000000 0.255649 I
0.244350 0.500000 0.500000 I
0.500000 0.500000 0.244350 I
0.755649 0.500000 0.500000 I
0.500000 0.244350 0.500000 I
0.500000 0.755649 0.500000 I
0.500000 0.500000 0.755649 I
0.744351 0.000000 0.500000 I
0.000000 0.000000 0.244350 I
0.255650 0.000000 0.500000 I
1.000000 0.744351 0.500000 I
0.000000 0.255649 0.500000 I
0.000000 0.000000 0.755649 I
0.744351 0.500000 1.000000 I
1.000000 0.500000 0.744351 I
0.255650 0.500000 0.000000 I
1.000000 0.244350 0.000000 I
1.000000 0.755649 0.000000 I
1.000000 0.500000 0.255649 I
