Cs8 Sc4 Tl4 I6 Br18
1.0
11.990878 0.000000 0.000000
-0.000000 11.990878 0.000000
0.000000 0.000000 11.990878
Cs Sc Tl I Br
8 4 4 6 18
direct
0.750000 0.750000 0.750000 Cs
0.250000 0.250000 0.250000 Cs
0.750000 0.250000 0.250000 Cs
0.250000 0.750000 0.750000 Cs
0.250000 0.750000 0.250000 Cs
0.750000 0.250000 0.750000 Cs
0.250000 0.250000 0.750000 Cs
0.750000 0.750000 0.250000 Cs
0.000000 0.000000 0.000000 Sc
0.000000 0.500000 0.500000 Sc
0.500000 0.000000 0.500000 Sc
0.500000 0.500000 1.000000 Sc
0.500000 0.000000 1.000000 Tl
0.500000 0.500000 0.500000 Tl
0.000000 0.000000 0.500000 Tl
0.000000 0.500000 1.000000 Tl
0.500000 0.000000 0.726952 I
0.773048 0.000000 1.000000 I
0.500000 0.773048 0.500000 I
0.726952 0.000000 0.500000 I
0.000000 0.273048 0.500000 I
0.726952 0.500000 0.000000 I
0.226952 0.000000 0.000000 Br
0.500000 0.726952 0.000000 Br
0.500000 0.273048 0.000000 Br
0.500000 0.000000 0.273048 Br
0.226952 0.500000 0.500000 Br
0.500000 0.500000 0.226952 Br
0.773048 0.500000 0.500000 Br
0.500000 0.226952 0.500000 Br
0.500000 0.500000 0.773048 Br
0.000000 0.000000 0.226952 Br
0.273048 0.000000 0.500000 Br
1.000000 0.726952 0.500000 Br
0.000000 0.000000 0.773048 Br
0.000000 0.500000 0.726952 Br
0.273048 0.500000 0.000000 Br
0.000000 0.226952 0.000000 Br
0.000000 0.773048 1.000000 Br
0.000000 0.500000 0.273048 Br
