Cs8 In4 Au4 Br12 Cl12
1.0
10.930333 0.000000 0.000000
-0.000000 10.930333 0.000000
0.000000 0.000000 10.930333
Cs In Au Br Cl
8 4 4 12 12
direct
0.750000 0.750000 0.750000 Cs
0.250000 0.250000 0.250000 Cs
0.750000 0.250000 0.250000 Cs
0.250000 0.750000 0.750000 Cs
0.250000 0.750000 0.250000 Cs
0.750000 0.250000 0.750000 Cs
0.250000 0.250000 0.750000 Cs
0.750000 0.750000 0.250000 Cs
0.000000 0.000000 0.000000 In
0.000000 0.500000 0.500000 In
0.500000 0.000000 0.500000 In
0.500000 0.500000 1.000000 In
0.500000 0.000000 1.000000 Au
0.500000 0.500000 0.500000 Au
0.000000 0.000000 0.500000 Au
0.000000 0.500000 1.000000 Au
0.500000 0.000000 0.747494 Br
0.500000 0.747494 0.000000 Br
0.500000 0.000000 0.252506 Br
0.500000 0.500000 0.247494 Br
0.747494 0.000000 0.500000 Br
0.252506 0.000000 0.500000 Br
0.000000 0.252506 0.500000 Br
0.000000 0.000000 0.752506 Br
0.000000 0.500000 0.747494 Br
0.000000 0.247494 0.000000 Br
0.000000 0.752506 0.000000 Br
0.000000 0.500000 0.252506 Br
0.247494 0.000000 1.000000 Cl
0.752506 0.000000 1.000000 Cl
0.500000 0.252506 1.000000 Cl
0.247494 0.500000 0.500000 Cl
0.752506 0.500000 0.500000 Cl
0.500000 0.247494 0.500000 Cl
0.500000 0.752506 0.500000 Cl
0.500000 0.500000 0.752506 Cl
0.000000 0.000000 0.247494 Cl
0.000000 0.747494 0.500000 Cl
0.747494 0.500000 1.000000 Cl
0.252506 0.500000 1.000000 Cl
