Cs8 Tl3 As4 Au1 Br24
1.0
11.499970 0.000000 0.000000
-0.000000 11.499970 0.000000
0.000000 0.000000 11.499970
Cs Tl As Au Br
8 3 4 1 24
direct
0.750000 0.250000 0.250000 Cs
0.250000 0.750000 0.750000 Cs
0.750000 0.750000 0.750000 Cs
0.250000 0.250000 0.250000 Cs
0.250000 0.250000 0.750000 Cs
0.750000 0.750000 0.250000 Cs
0.250000 0.750000 0.250000 Cs
0.750000 0.250000 0.750000 Cs
0.500000 0.500000 0.500000 Tl
0.500000 0.000000 0.000000 Tl
0.000000 0.000000 0.500000 Tl
0.000000 0.500000 0.500000 As
0.000000 0.000000 0.000000 As
0.500000 0.500000 0.000000 As
0.500000 0.000000 0.500000 As
0.000000 0.500000 0.000000 Au
0.229766 0.500000 0.500000 Br
0.500000 0.500000 0.229766 Br
0.770234 0.500000 0.500000 Br
0.500000 0.229766 0.500000 Br
0.500000 0.770234 0.500000 Br
0.500000 0.500000 0.770234 Br
0.229766 0.000000 0.000000 Br
0.500000 0.000000 0.729766 Br
0.770234 0.000000 0.000000 Br
0.500000 0.729766 0.000000 Br
0.500000 0.270234 0.000000 Br
0.500000 0.000000 0.270234 Br
0.729766 0.500000 1.000000 Br
0.000000 0.500000 0.729766 Br
0.270234 0.500000 0.000000 Br
0.000000 0.229766 0.000000 Br
1.000000 0.770234 0.000000 Br
0.000000 0.500000 0.270234 Br
0.729766 0.000000 0.500000 Br
0.000000 0.000000 0.229766 Br
0.270234 0.000000 0.500000 Br
0.000000 0.729766 0.500000 Br
1.000000 0.270234 0.500000 Br
0.000000 0.000000 0.770234 Br
