Cs8 Tl8 Br1 Cl23
1.0
11.372955 0.000000 0.000000
-0.000000 11.372955 0.000000
0.000000 0.000000 11.372955
Cs Tl Br Cl
8 8 1 23
direct
0.750000 0.750000 0.750000 Cs
0.250000 0.250000 0.250000 Cs
0.750000 0.250000 0.250000 Cs
0.250000 0.750000 0.750000 Cs
0.250000 0.750000 0.250000 Cs
0.750000 0.250000 0.750000 Cs
0.250000 0.250000 0.750000 Cs
0.750000 0.750000 0.250000 Cs
0.500000 0.000000 0.000000 Tl
0.000000 0.000000 0.000000 Tl
0.500000 0.500000 0.500000 Tl
0.000000 0.500000 0.500000 Tl
0.000000 0.000000 0.500000 Tl
0.500000 0.000000 0.500000 Tl
0.000000 0.500000 0.000000 Tl
0.500000 0.500000 0.000000 Tl
0.500000 0.000000 0.732736 Br
0.232736 0.000000 0.000000 Cl
0.767264 0.000000 1.000000 Cl
0.500000 0.732736 0.000000 Cl
0.500000 0.267264 0.000000 Cl
0.500000 0.000000 0.267264 Cl
0.232736 0.500000 0.500000 Cl
0.500000 0.500000 0.232736 Cl
0.767264 0.500000 0.500000 Cl
0.500000 0.232736 0.500000 Cl
0.500000 0.767264 0.500000 Cl
0.500000 0.500000 0.767264 Cl
0.732736 0.000000 0.500000 Cl
0.000000 0.000000 0.232736 Cl
0.267264 0.000000 0.500000 Cl
0.000000 0.732736 0.500000 Cl
0.000000 0.267264 0.500000 Cl
0.000000 0.000000 0.767264 Cl
0.732736 0.500000 1.000000 Cl
0.000000 0.500000 0.732736 Cl
0.267264 0.500000 1.000000 Cl
0.000000 0.232736 0.000000 Cl
1.000000 0.767264 0.000000 Cl
0.000000 0.500000 0.267264 Cl
