Cs8 Tl4 Cu4 Br2 Cl22
1.0
10.524662 0.000000 0.000000
-0.000000 10.524662 0.000000
0.000000 0.000000 10.524662
Cs Tl Cu Br Cl
8 4 4 2 22
direct
0.750000 0.750000 0.750000 Cs
0.250000 0.250000 0.250000 Cs
0.750000 0.250000 0.250000 Cs
0.250000 0.750000 0.750000 Cs
0.250000 0.750000 0.250000 Cs
0.750000 0.250000 0.750000 Cs
0.250000 0.250000 0.750000 Cs
0.750000 0.750000 0.250000 Cs
0.000000 0.000000 0.000000 Tl
1.000000 0.500000 0.500000 Tl
0.500000 0.000000 0.500000 Tl
0.500000 0.500000 1.000000 Tl
0.500000 0.000000 1.000000 Cu
0.500000 0.500000 0.500000 Cu
0.000000 0.000000 0.500000 Cu
1.000000 0.500000 1.000000 Cu
0.736860 0.000000 0.000000 Br
0.000000 0.000000 0.736860 Br
0.263140 0.000000 0.000000 Cl
0.500000 0.000000 0.763140 Cl
0.500000 0.763140 1.000000 Cl
0.500000 0.236860 0.000000 Cl
0.500000 0.000000 0.236860 Cl
0.263140 0.500000 0.500000 Cl
0.500000 0.500000 0.263140 Cl
0.736860 0.500000 0.500000 Cl
0.500000 0.263140 0.500000 Cl
0.500000 0.736860 0.500000 Cl
0.500000 0.500000 0.736860 Cl
0.763140 0.000000 0.500000 Cl
0.000000 0.000000 0.263140 Cl
0.236860 0.000000 0.500000 Cl
1.000000 0.763140 0.500000 Cl
0.000000 0.236860 0.500000 Cl
0.763140 0.500000 1.000000 Cl
1.000000 0.500000 0.763140 Cl
0.236860 0.500000 0.000000 Cl
1.000000 0.263140 0.000000 Cl
1.000000 0.736860 0.000000 Cl
1.000000 0.500000 0.236860 Cl
