Cs8 In1 Ag4 Sb3 Br24
1.0
11.336435 0.000000 0.000000
-0.000000 11.336435 0.000000
0.000000 0.000000 11.336435
Cs In Ag Sb Br
8 1 4 3 24
direct
0.750000 0.750000 0.750000 Cs
0.250000 0.250000 0.250000 Cs
0.750000 0.250000 0.250000 Cs
0.250000 0.750000 0.750000 Cs
0.250000 0.750000 0.250000 Cs
0.750000 0.250000 0.750000 Cs
0.250000 0.250000 0.750000 Cs
0.750000 0.750000 0.250000 Cs
0.500000 0.500000 1.000000 In
0.500000 0.000000 1.000000 Ag
0.500000 0.500000 0.500000 Ag
0.000000 0.000000 0.500000 Ag
0.000000 0.500000 1.000000 Ag
0.000000 0.000000 0.000000 Sb
0.000000 0.500000 0.500000 Sb
0.500000 0.000000 0.500000 Sb
0.248446 0.000000 1.000000 Br
0.500000 0.000000 0.748446 Br
0.751554 0.000000 1.000000 Br
0.500000 0.748446 0.000000 Br
0.500000 0.251554 1.000000 Br
0.500000 0.000000 0.251554 Br
0.248446 0.500000 0.500000 Br
0.500000 0.500000 0.248446 Br
0.751554 0.500000 0.500000 Br
0.500000 0.248446 0.500000 Br
0.500000 0.751554 0.500000 Br
0.500000 0.500000 0.751554 Br
0.748446 0.000000 0.500000 Br
0.000000 0.000000 0.248446 Br
0.251554 0.000000 0.500000 Br
0.000000 0.748446 0.500000 Br
0.000000 0.251554 0.500000 Br
0.000000 0.000000 0.751554 Br
0.748446 0.500000 1.000000 Br
0.000000 0.500000 0.748446 Br
0.251554 0.500000 1.000000 Br
0.000000 0.248446 1.000000 Br
0.000000 0.751554 1.000000 Br
0.000000 0.500000 0.251554 Br
