Cs8 Ag4 Bi1 Sb3 I24
1.0
12.170262 0.000000 0.000000
-0.000000 12.170262 0.000000
0.000000 0.000000 12.170262
Cs Ag Bi Sb I
8 4 1 3 24
direct
0.250000 0.250000 0.750000 Cs
0.750000 0.250000 0.750000 Cs
0.250000 0.750000 0.250000 Cs
0.750000 0.750000 0.250000 Cs
0.750000 0.250000 0.250000 Cs
0.250000 0.250000 0.250000 Cs
0.750000 0.750000 0.750000 Cs
0.250000 0.750000 0.750000 Cs
0.500000 0.000000 1.000000 Ag
0.500000 0.500000 0.500000 Ag
0.000000 0.000000 0.500000 Ag
0.000000 0.500000 1.000000 Ag
0.500000 0.500000 1.000000 Bi
0.000000 0.000000 0.000000 Sb
0.000000 0.500000 0.500000 Sb
0.500000 0.000000 0.500000 Sb
0.500000 0.000000 0.750745 I
0.500000 0.250745 0.500000 I
0.500000 0.000000 0.249255 I
0.250745 0.000000 1.000000 I
0.749255 0.000000 1.000000 I
0.500000 0.249255 1.000000 I
0.500000 0.500000 0.250745 I
0.500000 0.750745 1.000000 I
0.500000 0.500000 0.749255 I
0.250745 0.500000 0.500000 I
0.749255 0.500000 0.500000 I
0.500000 0.749255 0.500000 I
0.000000 0.000000 0.250745 I
0.000000 0.250745 1.000000 I
0.000000 0.000000 0.749255 I
0.750745 0.000000 0.500000 I
0.249255 0.000000 0.500000 I
0.000000 0.249255 0.500000 I
0.000000 0.500000 0.750745 I
0.000000 0.750745 0.500000 I
0.000000 0.500000 0.249255 I
0.750745 0.500000 1.000000 I
0.249255 0.500000 1.000000 I
1.000000 0.749255 1.000000 I
