Cs8 Sc4 Ag2 Au2 Br24
1.0
11.154946 0.000000 0.000000
-0.000000 11.154946 0.000000
0.000000 0.000000 11.154946
Cs Sc Ag Au Br
8 4 2 2 24
direct
0.750000 0.750000 0.750000 Cs
0.250000 0.250000 0.250000 Cs
0.750000 0.250000 0.250000 Cs
0.250000 0.750000 0.750000 Cs
0.250000 0.750000 0.250000 Cs
0.750000 0.250000 0.750000 Cs
0.250000 0.250000 0.750000 Cs
0.750000 0.750000 0.250000 Cs
0.000000 0.000000 0.000000 Sc
0.000000 0.500000 0.500000 Sc
0.500000 0.000000 0.500000 Sc
0.500000 0.500000 1.000000 Sc
0.000000 0.000000 0.500000 Ag
0.000000 0.500000 1.000000 Ag
0.500000 0.000000 1.000000 Au
0.500000 0.500000 0.500000 Au
0.239946 0.000000 1.000000 Br
0.500000 0.000000 0.739946 Br
0.760054 0.000000 1.000000 Br
0.500000 0.739946 0.000000 Br
0.500000 0.260054 1.000000 Br
0.500000 0.000000 0.260054 Br
0.239946 0.500000 0.500000 Br
0.500000 0.500000 0.239946 Br
0.760054 0.500000 0.500000 Br
0.500000 0.239946 0.500000 Br
0.500000 0.760054 0.500000 Br
0.500000 0.500000 0.760054 Br
0.739946 0.000000 0.500000 Br
0.000000 0.000000 0.239946 Br
0.260054 0.000000 0.500000 Br
0.000000 0.739946 0.500000 Br
0.000000 0.260054 0.500000 Br
0.000000 0.000000 0.760054 Br
0.739946 0.500000 1.000000 Br
0.000000 0.500000 0.739946 Br
0.260054 0.500000 0.000000 Br
0.000000 0.239946 0.000000 Br
0.000000 0.760054 1.000000 Br
0.000000 0.500000 0.260054 Br
