Cs8 In1 Cu3 Sb4 I24
1.0
11.898301 0.000000 0.000000
-0.000000 11.898301 0.000000
0.000000 0.000000 11.898301
Cs In Cu Sb I
8 1 3 4 24
direct
0.250000 0.750000 0.250000 Cs
0.750000 0.250000 0.750000 Cs
0.250000 0.250000 0.750000 Cs
0.750000 0.750000 0.250000 Cs
0.750000 0.750000 0.750000 Cs
0.250000 0.250000 0.250000 Cs
0.750000 0.250000 0.250000 Cs
0.250000 0.750000 0.750000 Cs
0.000000 0.000000 0.500000 In
0.000000 0.500000 0.000000 Cu
0.500000 0.000000 0.000000 Cu
0.500000 0.500000 0.500000 Cu
0.500000 0.000000 0.500000 Sb
0.500000 0.500000 0.000000 Sb
0.000000 0.000000 0.000000 Sb
0.000000 0.500000 0.500000 Sb
0.742467 0.000000 0.500000 I
0.000000 0.000000 0.242467 I
0.257533 0.000000 0.500000 I
1.000000 0.742467 0.500000 I
1.000000 0.257533 0.500000 I
0.000000 0.000000 0.757533 I
0.742467 0.500000 0.000000 I
0.000000 0.500000 0.742467 I
0.257533 0.500000 0.000000 I
0.000000 0.242467 0.000000 I
1.000000 0.757533 0.000000 I
0.000000 0.500000 0.257533 I
0.242467 0.000000 0.000000 I
0.500000 0.000000 0.742467 I
0.757533 0.000000 0.000000 I
0.500000 0.742467 0.000000 I
0.500000 0.257533 0.000000 I
0.500000 0.000000 0.257533 I
0.242467 0.500000 0.500000 I
0.500000 0.500000 0.242467 I
0.757533 0.500000 0.500000 I
0.500000 0.242467 0.500000 I
0.500000 0.757533 0.500000 I
0.500000 0.500000 0.757533 I
