Cs8 In8 I7 Br17
1.0
11.900999 0.000000 0.000000
-0.000000 11.900999 0.000000
0.000000 0.000000 11.900999
Cs In I Br
8 8 7 17
direct
0.750000 0.750000 0.750000 Cs
0.250000 0.250000 0.250000 Cs
0.750000 0.250000 0.250000 Cs
0.250000 0.750000 0.750000 Cs
0.250000 0.750000 0.250000 Cs
0.750000 0.250000 0.750000 Cs
0.250000 0.250000 0.750000 Cs
0.750000 0.750000 0.250000 Cs
0.500000 0.000000 0.000000 In
0.000000 0.000000 0.000000 In
0.500000 0.500000 0.500000 In
0.000000 0.500000 0.500000 In
0.000000 0.000000 0.500000 In
0.500000 0.000000 0.500000 In
0.000000 0.500000 0.000000 In
0.500000 0.500000 0.000000 In
0.500000 0.260228 0.000000 I
0.500000 0.000000 0.260228 I
0.239772 0.500000 0.500000 I
0.500000 0.239772 0.500000 I
0.739772 0.500000 1.000000 I
1.000000 0.239772 0.000000 I
0.000000 0.500000 0.260228 I
0.239772 0.000000 0.000000 Br
0.500000 0.000000 0.739772 Br
0.760228 0.000000 0.000000 Br
0.500000 0.739772 0.000000 Br
0.500000 0.500000 0.239772 Br
0.760228 0.500000 0.500000 Br
0.500000 0.760228 0.500000 Br
0.500000 0.500000 0.760228 Br
0.739772 0.000000 0.500000 Br
0.000000 0.000000 0.239772 Br
0.260228 0.000000 0.500000 Br
1.000000 0.739772 0.500000 Br
1.000000 0.260228 0.500000 Br
0.000000 0.000000 0.760228 Br
0.000000 0.500000 0.739772 Br
0.260228 0.500000 0.000000 Br
1.000000 0.760228 0.000000 Br
