Cs8 Tl3 Ga1 Ag4 Br24
1.0
11.232538 0.000000 0.000000
-0.000000 11.232538 0.000000
0.000000 0.000000 11.232538
Cs Tl Ga Ag Br
8 3 1 4 24
direct
0.750000 0.750000 0.750000 Cs
0.250000 0.250000 0.250000 Cs
0.750000 0.250000 0.250000 Cs
0.250000 0.750000 0.750000 Cs
0.250000 0.750000 0.250000 Cs
0.750000 0.250000 0.750000 Cs
0.250000 0.250000 0.750000 Cs
0.750000 0.750000 0.250000 Cs
0.000000 0.000000 0.000000 Tl
0.000000 0.500000 0.500000 Tl
0.500000 0.000000 0.500000 Tl
0.500000 0.500000 1.000000 Ga
0.500000 0.000000 1.000000 Ag
0.500000 0.500000 0.500000 Ag
0.000000 0.000000 0.500000 Ag
0.000000 0.500000 1.000000 Ag
0.251926 0.000000 1.000000 Br
0.500000 0.000000 0.751926 Br
0.748074 0.000000 1.000000 Br
0.500000 0.751926 1.000000 Br
0.500000 0.248074 1.000000 Br
0.500000 0.000000 0.248074 Br
0.251926 0.500000 0.500000 Br
0.500000 0.500000 0.251926 Br
0.748074 0.500000 0.500000 Br
0.500000 0.251926 0.500000 Br
0.500000 0.748074 0.500000 Br
0.500000 0.500000 0.748074 Br
0.751926 0.000000 0.500000 Br
0.000000 0.000000 0.251926 Br
0.248074 0.000000 0.500000 Br
0.000000 0.751926 0.500000 Br
0.000000 0.248074 0.500000 Br
0.000000 0.000000 0.748074 Br
0.751926 0.500000 1.000000 Br
0.000000 0.500000 0.751926 Br
0.248074 0.500000 0.000000 Br
0.000000 0.251926 1.000000 Br
0.000000 0.748074 1.000000 Br
0.000000 0.500000 0.248074 Br
