Cs8 Sb4 Au4 I2 Br22
1.0
11.389448 0.000000 0.000000
-0.000000 11.389448 0.000000
0.000000 0.000000 11.389448
Cs Sb Au I Br
8 4 4 2 22
direct
0.750000 0.750000 0.750000 Cs
0.250000 0.250000 0.250000 Cs
0.750000 0.250000 0.250000 Cs
0.250000 0.750000 0.750000 Cs
0.250000 0.750000 0.250000 Cs
0.750000 0.250000 0.750000 Cs
0.250000 0.250000 0.750000 Cs
0.750000 0.750000 0.250000 Cs
0.000000 0.000000 0.000000 Sb
0.000000 0.500000 0.500000 Sb
0.500000 0.000000 0.500000 Sb
0.500000 0.500000 1.000000 Sb
0.500000 0.000000 1.000000 Au
0.500000 0.500000 0.500000 Au
0.000000 0.000000 0.500000 Au
0.000000 0.500000 1.000000 Au
0.500000 0.252885 0.500000 I
0.000000 0.247115 0.500000 I
0.252885 0.000000 1.000000 Br
0.500000 0.000000 0.752885 Br
0.747115 0.000000 0.000000 Br
0.500000 0.752885 0.000000 Br
0.500000 0.247115 0.000000 Br
0.500000 0.000000 0.247115 Br
0.252885 0.500000 0.500000 Br
0.500000 0.500000 0.252885 Br
0.747115 0.500000 0.500000 Br
0.500000 0.747115 0.500000 Br
0.500000 0.500000 0.747115 Br
0.752885 0.000000 0.500000 Br
0.000000 0.000000 0.252885 Br
0.247115 0.000000 0.500000 Br
1.000000 0.752885 0.500000 Br
0.000000 0.000000 0.747115 Br
0.752885 0.500000 1.000000 Br
0.000000 0.500000 0.752885 Br
0.247115 0.500000 0.000000 Br
0.000000 0.252885 1.000000 Br
1.000000 0.747115 0.000000 Br
0.000000 0.500000 0.247115 Br
