Cs8 Tl4 Ga1 Bi3 Br24
1.0
11.951102 0.000000 0.000000
-0.000000 11.951102 0.000000
0.000000 0.000000 11.951102
Cs Tl Ga Bi Br
8 4 1 3 24
direct
0.750000 0.750000 0.750000 Cs
0.250000 0.250000 0.250000 Cs
0.750000 0.250000 0.250000 Cs
0.250000 0.750000 0.750000 Cs
0.250000 0.750000 0.250000 Cs
0.750000 0.250000 0.750000 Cs
0.250000 0.250000 0.750000 Cs
0.750000 0.750000 0.250000 Cs
0.500000 0.000000 0.000000 Tl
0.500000 0.500000 0.500000 Tl
0.000000 0.000000 0.500000 Tl
1.000000 0.500000 0.000000 Tl
0.500000 0.000000 0.500000 Ga
0.000000 0.000000 0.000000 Bi
1.000000 0.500000 0.500000 Bi
0.500000 0.500000 0.000000 Bi
0.237802 0.000000 1.000000 Br
0.500000 0.000000 0.737802 Br
0.762198 0.000000 0.000000 Br
0.500000 0.737802 0.000000 Br
0.500000 0.262198 0.000000 Br
0.500000 0.000000 0.262198 Br
0.237802 0.500000 0.500000 Br
0.500000 0.500000 0.237802 Br
0.762198 0.500000 0.500000 Br
0.500000 0.237802 0.500000 Br
0.500000 0.762198 0.500000 Br
0.500000 0.500000 0.762198 Br
0.737802 0.000000 0.500000 Br
0.000000 0.000000 0.237802 Br
0.262198 0.000000 0.500000 Br
0.000000 0.737802 0.500000 Br
1.000000 0.262198 0.500000 Br
0.000000 0.000000 0.762198 Br
0.737802 0.500000 1.000000 Br
1.000000 0.500000 0.737802 Br
0.262198 0.500000 0.000000 Br
1.000000 0.237802 0.000000 Br
1.000000 0.762198 0.000000 Br
1.000000 0.500000 0.262198 Br
