Cs8 Ga1 Cu4 As3 Cl24
1.0
10.228247 0.000000 0.000000
-0.000000 10.228247 0.000000
0.000000 0.000000 10.228247
Cs Ga Cu As Cl
8 1 4 3 24
direct
0.750000 0.250000 0.250000 Cs
0.250000 0.750000 0.750000 Cs
0.750000 0.750000 0.750000 Cs
0.250000 0.250000 0.250000 Cs
0.250000 0.250000 0.750000 Cs
0.750000 0.750000 0.250000 Cs
0.250000 0.750000 0.250000 Cs
0.750000 0.250000 0.750000 Cs
0.500000 0.000000 0.500000 Ga
0.500000 0.500000 0.500000 Cu
0.500000 0.000000 0.000000 Cu
1.000000 0.500000 0.000000 Cu
0.000000 0.000000 0.500000 Cu
1.000000 0.500000 0.500000 As
0.000000 0.000000 0.000000 As
0.500000 0.500000 0.000000 As
0.249957 0.500000 0.500000 Cl
0.500000 0.500000 0.249957 Cl
0.750043 0.500000 0.500000 Cl
0.500000 0.249957 0.500000 Cl
0.500000 0.750043 0.500000 Cl
0.500000 0.500000 0.750043 Cl
0.249957 0.000000 0.000000 Cl
0.500000 0.000000 0.749957 Cl
0.750043 0.000000 0.000000 Cl
0.500000 0.749957 0.000000 Cl
0.500000 0.250043 1.000000 Cl
0.500000 0.000000 0.250043 Cl
0.749957 0.500000 0.000000 Cl
1.000000 0.500000 0.749957 Cl
0.250043 0.500000 0.000000 Cl
0.000000 0.249957 0.000000 Cl
0.000000 0.750043 0.000000 Cl
1.000000 0.500000 0.250043 Cl
0.749957 0.000000 0.500000 Cl
0.000000 0.000000 0.249957 Cl
0.250043 0.000000 0.500000 Cl
1.000000 0.749957 0.500000 Cl
1.000000 0.250043 0.500000 Cl
0.000000 0.000000 0.750043 Cl
