Cs8 Tl4 Sb4 Br12 Cl12
1.0
11.717383 0.000000 0.000000
-0.000000 11.717383 0.000000
0.000000 0.000000 11.717383
Cs Tl Sb Br Cl
8 4 4 12 12
direct
0.250000 0.250000 0.250000 Cs
0.750000 0.750000 0.750000 Cs
0.250000 0.750000 0.750000 Cs
0.750000 0.250000 0.250000 Cs
0.750000 0.250000 0.750000 Cs
0.250000 0.750000 0.250000 Cs
0.750000 0.750000 0.250000 Cs
0.250000 0.250000 0.750000 Cs
1.000000 0.500000 0.500000 Tl
0.000000 0.000000 0.000000 Tl
0.500000 0.500000 0.000000 Tl
0.500000 0.000000 0.500000 Tl
0.500000 0.500000 0.500000 Sb
0.500000 0.000000 0.000000 Sb
1.000000 0.500000 0.000000 Sb
0.000000 0.000000 0.500000 Sb
0.732710 0.500000 0.500000 Br
1.000000 0.500000 0.232710 Br
0.267290 0.500000 0.500000 Br
1.000000 0.232710 0.500000 Br
0.267290 0.000000 0.000000 Br
0.000000 0.732710 0.000000 Br
0.232710 0.500000 0.000000 Br
0.500000 0.500000 0.732710 Br
0.767290 0.500000 0.000000 Br
0.500000 0.767290 0.000000 Br
0.500000 0.000000 0.232710 Br
0.500000 0.732710 0.500000 Br
1.000000 0.767290 0.500000 Cl
1.000000 0.500000 0.767290 Cl
0.732710 0.000000 1.000000 Cl
0.000000 0.000000 0.732710 Cl
0.000000 0.267290 0.000000 Cl
0.000000 0.000000 0.267290 Cl
0.500000 0.232710 0.000000 Cl
0.500000 0.500000 0.267290 Cl
0.232710 0.000000 0.500000 Cl
0.767290 0.000000 0.500000 Cl
0.500000 0.267290 0.500000 Cl
0.500000 0.000000 0.767290 Cl
