Cs8 Tl1 In3 Au4 Cl24
1.0
10.657646 0.000000 0.000000
-0.000000 10.657646 0.000000
0.000000 0.000000 10.657646
Cs Tl In Au Cl
8 1 3 4 24
direct
0.750000 0.750000 0.750000 Cs
0.250000 0.250000 0.250000 Cs
0.750000 0.250000 0.250000 Cs
0.250000 0.750000 0.750000 Cs
0.250000 0.750000 0.250000 Cs
0.750000 0.250000 0.750000 Cs
0.250000 0.250000 0.750000 Cs
0.750000 0.750000 0.250000 Cs
0.000000 0.500000 0.500000 Tl
0.000000 0.000000 0.000000 In
0.500000 0.000000 0.500000 In
0.500000 0.500000 1.000000 In
0.500000 0.000000 1.000000 Au
0.500000 0.500000 0.500000 Au
0.000000 0.000000 0.500000 Au
0.000000 0.500000 1.000000 Au
0.259446 0.000000 1.000000 Cl
0.500000 0.000000 0.759446 Cl
0.740554 0.000000 0.000000 Cl
0.500000 0.759446 0.000000 Cl
0.500000 0.240554 0.000000 Cl
0.500000 0.000000 0.240554 Cl
0.259446 0.500000 0.500000 Cl
0.500000 0.500000 0.259446 Cl
0.740554 0.500000 0.500000 Cl
0.500000 0.259446 0.500000 Cl
0.500000 0.740554 0.500000 Cl
0.500000 0.500000 0.740554 Cl
0.759446 0.000000 0.500000 Cl
0.000000 0.000000 0.259446 Cl
0.240554 0.000000 0.500000 Cl
0.000000 0.759446 0.500000 Cl
0.000000 0.240554 0.500000 Cl
0.000000 0.000000 0.740554 Cl
0.759446 0.500000 1.000000 Cl
0.000000 0.500000 0.759446 Cl
0.240554 0.500000 0.000000 Cl
0.000000 0.259446 1.000000 Cl
1.000000 0.740554 0.000000 Cl
0.000000 0.500000 0.240554 Cl
