Cs8 In4 Ga1 As3 Br24
1.0
11.494471 0.000000 0.000000
-0.000000 11.494471 0.000000
0.000000 0.000000 11.494471
Cs In Ga As Br
8 4 1 3 24
direct
0.250000 0.250000 0.250000 Cs
0.750000 0.750000 0.750000 Cs
0.250000 0.750000 0.750000 Cs
0.750000 0.250000 0.250000 Cs
0.750000 0.250000 0.750000 Cs
0.250000 0.750000 0.250000 Cs
0.750000 0.750000 0.250000 Cs
0.250000 0.250000 0.750000 Cs
0.000000 0.500000 0.500000 In
0.000000 0.000000 0.000000 In
0.500000 0.500000 1.000000 In
0.500000 0.000000 0.500000 In
0.000000 0.500000 1.000000 Ga
0.500000 0.500000 0.500000 As
0.500000 0.000000 1.000000 As
0.000000 0.000000 0.500000 As
0.734305 0.500000 0.500000 Br
0.000000 0.500000 0.234305 Br
0.265695 0.500000 0.500000 Br
0.000000 0.234305 0.500000 Br
0.000000 0.765695 0.500000 Br
0.000000 0.500000 0.765695 Br
0.734305 0.000000 1.000000 Br
0.000000 0.000000 0.734305 Br
0.265695 0.000000 0.000000 Br
0.000000 0.734305 0.000000 Br
0.000000 0.265695 1.000000 Br
0.000000 0.000000 0.265695 Br
0.234305 0.500000 1.000000 Br
0.500000 0.500000 0.734305 Br
0.765695 0.500000 1.000000 Br
0.500000 0.234305 1.000000 Br
0.500000 0.765695 0.000000 Br
0.500000 0.500000 0.265695 Br
0.234305 0.000000 0.500000 Br
0.500000 0.000000 0.234305 Br
0.765695 0.000000 0.500000 Br
0.500000 0.734305 0.500000 Br
0.500000 0.265695 0.500000 Br
0.500000 0.000000 0.765695 Br
