Cs8 Cu4 Sb4 I22 Br2
1.0
11.823572 0.000000 0.000000
-0.000000 11.823572 0.000000
0.000000 0.000000 11.823572
Cs Cu Sb I Br
8 4 4 22 2
direct
0.750000 0.250000 0.750000 Cs
0.250000 0.250000 0.750000 Cs
0.750000 0.750000 0.250000 Cs
0.250000 0.750000 0.250000 Cs
0.250000 0.250000 0.250000 Cs
0.750000 0.250000 0.250000 Cs
0.250000 0.750000 0.750000 Cs
0.750000 0.750000 0.750000 Cs
0.500000 0.500000 0.500000 Cu
0.500000 0.000000 1.000000 Cu
1.000000 0.500000 1.000000 Cu
0.000000 0.000000 0.500000 Cu
0.000000 0.000000 0.000000 Sb
1.000000 0.500000 0.500000 Sb
0.500000 0.000000 0.500000 Sb
0.500000 0.500000 1.000000 Sb
0.500000 0.000000 0.242702 I
0.257298 0.000000 1.000000 I
0.500000 0.000000 0.757298 I
0.500000 0.257298 0.500000 I
0.500000 0.242702 0.000000 I
0.742702 0.000000 1.000000 I
0.500000 0.500000 0.742702 I
0.257298 0.500000 0.500000 I
0.500000 0.757298 0.000000 I
0.500000 0.742702 0.500000 I
0.742702 0.500000 0.500000 I
0.000000 0.000000 0.742702 I
0.757298 0.000000 0.500000 I
0.000000 0.000000 0.257298 I
0.000000 0.257298 1.000000 I
1.000000 0.242702 0.500000 I
0.242702 0.000000 0.500000 I
0.757298 0.500000 0.000000 I
1.000000 0.500000 0.757298 I
1.000000 0.757298 0.500000 I
0.000000 0.742702 0.000000 I
0.242702 0.500000 1.000000 I
0.500000 0.500000 0.257298 Br
1.000000 0.500000 0.242702 Br
