Cs8 Sc4 In3 Ag1 Cl24
1.0
11.129015 0.000000 0.000000
-0.000000 11.129015 0.000000
0.000000 0.000000 11.129015
Cs Sc In Ag Cl
8 4 3 1 24
direct
0.750000 0.750000 0.750000 Cs
0.250000 0.250000 0.250000 Cs
0.750000 0.250000 0.250000 Cs
0.250000 0.750000 0.750000 Cs
0.250000 0.750000 0.250000 Cs
0.750000 0.250000 0.750000 Cs
0.250000 0.250000 0.750000 Cs
0.750000 0.750000 0.250000 Cs
0.000000 0.000000 0.000000 Sc
0.000000 0.500000 0.500000 Sc
0.500000 0.000000 0.500000 Sc
0.500000 0.500000 0.000000 Sc
0.500000 0.000000 0.000000 In
0.500000 0.500000 0.500000 In
0.000000 0.000000 0.500000 In
0.000000 0.500000 0.000000 Ag
0.236953 0.000000 0.000000 Cl
0.500000 0.000000 0.736953 Cl
0.763047 0.000000 0.000000 Cl
0.500000 0.736953 0.000000 Cl
0.500000 0.263047 1.000000 Cl
0.500000 0.000000 0.263047 Cl
0.236953 0.500000 0.500000 Cl
0.500000 0.500000 0.236953 Cl
0.763047 0.500000 0.500000 Cl
0.500000 0.236953 0.500000 Cl
0.500000 0.763047 0.500000 Cl
0.500000 0.500000 0.763047 Cl
0.736953 0.000000 0.500000 Cl
0.000000 0.000000 0.236953 Cl
0.263047 0.000000 0.500000 Cl
1.000000 0.736953 0.500000 Cl
1.000000 0.263047 0.500000 Cl
0.000000 0.000000 0.763047 Cl
0.736953 0.500000 1.000000 Cl
0.000000 0.500000 0.736953 Cl
0.263047 0.500000 0.000000 Cl
0.000000 0.236953 0.000000 Cl
1.000000 0.763047 0.000000 Cl
0.000000 0.500000 0.263047 Cl
