Cs8 In4 Ag4 Br12 Cl12
1.0
10.958939 0.000000 0.000000
-0.000000 10.958939 0.000000
0.000000 0.000000 10.958939
Cs In Ag Br Cl
8 4 4 12 12
direct
0.750000 0.750000 0.750000 Cs
0.250000 0.250000 0.250000 Cs
0.750000 0.250000 0.250000 Cs
0.250000 0.750000 0.750000 Cs
0.250000 0.750000 0.250000 Cs
0.750000 0.250000 0.750000 Cs
0.250000 0.250000 0.750000 Cs
0.750000 0.750000 0.250000 Cs
0.000000 0.000000 0.000000 In
1.000000 0.500000 0.500000 In
0.500000 0.000000 0.500000 In
0.500000 0.500000 1.000000 In
0.500000 0.000000 1.000000 Ag
0.500000 0.500000 0.500000 Ag
0.000000 0.000000 0.500000 Ag
1.000000 0.500000 0.000000 Ag
0.500000 0.000000 0.740636 Br
0.500000 0.500000 0.240636 Br
0.259364 0.000000 0.500000 Br
1.000000 0.740636 0.500000 Br
0.000000 0.259364 0.500000 Br
0.000000 0.000000 0.759364 Br
0.740636 0.500000 0.000000 Br
1.000000 0.500000 0.740636 Br
0.259364 0.500000 1.000000 Br
1.000000 0.240636 0.000000 Br
1.000000 0.759364 0.000000 Br
1.000000 0.500000 0.259364 Br
0.240636 0.000000 0.000000 Cl
0.759364 0.000000 0.000000 Cl
0.500000 0.740636 0.000000 Cl
0.500000 0.259364 0.000000 Cl
0.500000 0.000000 0.259364 Cl
0.240636 0.500000 0.500000 Cl
0.759364 0.500000 0.500000 Cl
0.500000 0.240636 0.500000 Cl
0.500000 0.759364 0.500000 Cl
0.500000 0.500000 0.759364 Cl
0.740636 0.000000 0.500000 Cl
0.000000 0.000000 0.240636 Cl
