Cs8 In1 Cu4 Sb3 Br24
1.0
11.039071 0.000000 0.000000
-0.000000 11.039071 0.000000
0.000000 0.000000 11.039071
Cs In Cu Sb Br
8 1 4 3 24
direct
0.750000 0.250000 0.750000 Cs
0.250000 0.250000 0.750000 Cs
0.750000 0.750000 0.250000 Cs
0.250000 0.750000 0.250000 Cs
0.250000 0.250000 0.250000 Cs
0.750000 0.250000 0.250000 Cs
0.250000 0.750000 0.750000 Cs
0.750000 0.750000 0.750000 Cs
0.500000 0.500000 1.000000 In
0.500000 0.500000 0.500000 Cu
0.500000 0.000000 1.000000 Cu
0.000000 0.500000 1.000000 Cu
0.000000 0.000000 0.500000 Cu
0.000000 0.000000 0.000000 Sb
0.000000 0.500000 0.500000 Sb
0.500000 0.000000 0.500000 Sb
0.500000 0.000000 0.242702 Br
0.257298 0.000000 1.000000 Br
0.500000 0.000000 0.757298 Br
0.500000 0.257298 0.500000 Br
0.500000 0.242702 1.000000 Br
0.742702 0.000000 1.000000 Br
0.500000 0.500000 0.742702 Br
0.257298 0.500000 0.500000 Br
0.500000 0.500000 0.257298 Br
0.500000 0.757298 0.000000 Br
0.500000 0.742702 0.500000 Br
0.742702 0.500000 0.500000 Br
0.000000 0.000000 0.742702 Br
0.757298 0.000000 0.500000 Br
0.000000 0.000000 0.257298 Br
0.000000 0.257298 1.000000 Br
0.000000 0.242702 0.500000 Br
0.242702 0.000000 0.500000 Br
0.000000 0.500000 0.242702 Br
0.757298 0.500000 1.000000 Br
0.000000 0.500000 0.757298 Br
0.000000 0.757298 0.500000 Br
0.000000 0.742702 1.000000 Br
0.242702 0.500000 1.000000 Br
