Cs8 Tl4 In2 Ga2 Br24
1.0
11.674952 0.000000 0.000000
-0.000000 11.674952 0.000000
0.000000 0.000000 11.674952
Cs Tl In Ga Br
8 4 2 2 24
direct
0.250000 0.750000 0.250000 Cs
0.750000 0.250000 0.750000 Cs
0.250000 0.250000 0.750000 Cs
0.750000 0.750000 0.250000 Cs
0.750000 0.750000 0.750000 Cs
0.250000 0.250000 0.250000 Cs
0.750000 0.250000 0.250000 Cs
0.250000 0.750000 0.750000 Cs
0.000000 0.000000 0.500000 Tl
1.000000 0.500000 0.000000 Tl
0.500000 0.000000 0.000000 Tl
0.500000 0.500000 0.500000 Tl
0.500000 0.500000 0.000000 In
1.000000 0.500000 0.500000 In
0.500000 0.000000 0.500000 Ga
0.000000 0.000000 0.000000 Ga
0.730622 0.000000 0.500000 Br
0.000000 0.000000 0.230622 Br
0.269378 0.000000 0.500000 Br
1.000000 0.730622 0.500000 Br
1.000000 0.269378 0.500000 Br
0.000000 0.000000 0.769378 Br
0.730622 0.500000 0.000000 Br
1.000000 0.500000 0.730622 Br
0.269378 0.500000 0.000000 Br
1.000000 0.230622 0.000000 Br
1.000000 0.769378 0.000000 Br
1.000000 0.500000 0.269378 Br
0.230622 0.000000 0.000000 Br
0.500000 0.000000 0.730622 Br
0.769378 0.000000 0.000000 Br
0.500000 0.730622 0.000000 Br
0.500000 0.269378 0.000000 Br
0.500000 0.000000 0.269378 Br
0.230622 0.500000 0.500000 Br
0.500000 0.500000 0.230622 Br
0.769378 0.500000 0.500000 Br
0.500000 0.230622 0.500000 Br
0.500000 0.769378 0.500000 Br
0.500000 0.500000 0.769378 Br
