Cs8 Sc4 Ag4 I22 Br2
1.0
11.913866 0.000000 0.000000
-0.000000 11.913866 0.000000
0.000000 0.000000 11.913866
Cs Sc Ag I Br
8 4 4 22 2
direct
0.750000 0.750000 0.750000 Cs
0.250000 0.250000 0.250000 Cs
0.750000 0.250000 0.250000 Cs
0.250000 0.750000 0.750000 Cs
0.250000 0.750000 0.250000 Cs
0.750000 0.250000 0.750000 Cs
0.250000 0.250000 0.750000 Cs
0.750000 0.750000 0.250000 Cs
0.000000 0.000000 0.000000 Sc
0.000000 0.500000 0.500000 Sc
0.500000 0.000000 0.500000 Sc
0.500000 0.500000 0.000000 Sc
0.500000 0.000000 0.000000 Ag
0.500000 0.500000 0.500000 Ag
0.000000 0.000000 0.500000 Ag
0.000000 0.500000 0.000000 Ag
0.239946 0.000000 0.000000 I
0.500000 0.000000 0.739946 I
0.760054 0.000000 0.000000 I
0.500000 0.739946 0.000000 I
0.500000 0.260054 1.000000 I
0.500000 0.000000 0.260054 I
0.239946 0.500000 0.500000 I
0.500000 0.500000 0.239946 I
0.760054 0.500000 0.500000 I
0.500000 0.239946 0.500000 I
0.500000 0.500000 0.760054 I
0.739946 0.000000 0.500000 I
0.000000 0.000000 0.239946 I
0.260054 0.000000 0.500000 I
1.000000 0.739946 0.500000 I
0.000000 0.000000 0.760054 I
0.739946 0.500000 0.000000 I
0.000000 0.500000 0.739946 I
0.260054 0.500000 1.000000 I
1.000000 0.239946 0.000000 I
0.000000 0.760054 0.000000 I
0.000000 0.500000 0.260054 I
0.500000 0.760054 0.500000 Br
0.000000 0.260054 0.500000 Br
