Cs8 Tl3 In1 Au4 Cl24
1.0
10.759502 0.000000 0.000000
-0.000000 10.759502 0.000000
0.000000 0.000000 10.759502
Cs Tl In Au Cl
8 3 1 4 24
direct
0.750000 0.750000 0.750000 Cs
0.250000 0.250000 0.250000 Cs
0.750000 0.250000 0.250000 Cs
0.250000 0.750000 0.750000 Cs
0.250000 0.750000 0.250000 Cs
0.750000 0.250000 0.750000 Cs
0.250000 0.250000 0.750000 Cs
0.750000 0.750000 0.250000 Cs
0.000000 0.000000 0.000000 Tl
1.000000 0.500000 0.500000 Tl
0.500000 0.500000 0.000000 Tl
0.500000 0.000000 0.500000 In
0.500000 0.000000 0.000000 Au
0.500000 0.500000 0.500000 Au
0.000000 0.000000 0.500000 Au
1.000000 0.500000 0.000000 Au
0.259446 0.000000 0.000000 Cl
0.500000 0.000000 0.759446 Cl
0.740554 0.000000 0.000000 Cl
0.500000 0.759446 0.000000 Cl
0.500000 0.240554 0.000000 Cl
0.500000 0.000000 0.240554 Cl
0.259446 0.500000 0.500000 Cl
0.500000 0.500000 0.259446 Cl
0.740554 0.500000 0.500000 Cl
0.500000 0.259446 0.500000 Cl
0.500000 0.740554 0.500000 Cl
0.500000 0.500000 0.740554 Cl
0.759446 0.000000 0.500000 Cl
0.000000 0.000000 0.259446 Cl
0.240554 0.000000 0.500000 Cl
1.000000 0.759446 0.500000 Cl
1.000000 0.240554 0.500000 Cl
0.000000 0.000000 0.740554 Cl
0.759446 0.500000 0.000000 Cl
1.000000 0.500000 0.759446 Cl
0.240554 0.500000 0.000000 Cl
1.000000 0.259446 0.000000 Cl
1.000000 0.740554 0.000000 Cl
1.000000 0.500000 0.240554 Cl
