Cs8 In4 Bi2 Sb2 Cl24
1.0
11.409744 0.000000 0.000000
-0.000000 11.409744 0.000000
0.000000 0.000000 11.409744
Cs In Bi Sb Cl
8 4 2 2 24
direct
0.750000 0.750000 0.750000 Cs
0.250000 0.250000 0.250000 Cs
0.750000 0.250000 0.250000 Cs
0.250000 0.750000 0.750000 Cs
0.250000 0.750000 0.250000 Cs
0.750000 0.250000 0.750000 Cs
0.250000 0.250000 0.750000 Cs
0.750000 0.750000 0.250000 Cs
0.500000 0.000000 1.000000 In
0.500000 0.500000 0.500000 In
0.000000 0.000000 0.500000 In
0.000000 0.500000 1.000000 In
0.000000 0.500000 0.500000 Bi
0.500000 0.000000 0.500000 Bi
0.000000 0.000000 0.000000 Sb
0.500000 0.500000 1.000000 Sb
0.238046 0.000000 1.000000 Cl
0.500000 0.000000 0.738046 Cl
0.761954 0.000000 0.000000 Cl
0.500000 0.738046 0.000000 Cl
0.500000 0.261954 1.000000 Cl
0.500000 0.000000 0.261954 Cl
0.238046 0.500000 0.500000 Cl
0.500000 0.500000 0.238046 Cl
0.761954 0.500000 0.500000 Cl
0.500000 0.238046 0.500000 Cl
0.500000 0.761954 0.500000 Cl
0.500000 0.500000 0.761954 Cl
0.738046 0.000000 0.500000 Cl
0.000000 0.000000 0.238046 Cl
0.261954 0.000000 0.500000 Cl
0.000000 0.738046 0.500000 Cl
1.000000 0.261954 0.500000 Cl
0.000000 0.000000 0.761954 Cl
0.738046 0.500000 1.000000 Cl
0.000000 0.500000 0.738046 Cl
0.261954 0.500000 1.000000 Cl
0.000000 0.238046 0.000000 Cl
1.000000 0.761954 0.000000 Cl
0.000000 0.500000 0.261954 Cl
