Cs8 As4 Au4 Br22 Cl2
1.0
11.041535 0.000000 0.000000
-0.000000 11.041535 0.000000
0.000000 0.000000 11.041535
Cs As Au Br Cl
8 4 4 22 2
direct
0.750000 0.750000 0.750000 Cs
0.250000 0.250000 0.250000 Cs
0.750000 0.250000 0.250000 Cs
0.250000 0.750000 0.750000 Cs
0.250000 0.750000 0.250000 Cs
0.750000 0.250000 0.750000 Cs
0.250000 0.250000 0.750000 Cs
0.750000 0.750000 0.250000 Cs
0.000000 0.000000 0.000000 As
1.000000 0.500000 0.500000 As
0.500000 0.000000 0.500000 As
0.500000 0.500000 0.000000 As
0.500000 0.000000 0.000000 Au
0.500000 0.500000 0.500000 Au
0.000000 0.000000 0.500000 Au
1.000000 0.500000 0.000000 Au
0.241238 0.000000 0.000000 Br
0.500000 0.000000 0.741238 Br
0.758762 0.000000 0.000000 Br
0.500000 0.741238 0.000000 Br
0.500000 0.000000 0.258762 Br
0.241238 0.500000 0.500000 Br
0.500000 0.500000 0.241238 Br
0.758762 0.500000 0.500000 Br
0.500000 0.241238 0.500000 Br
0.500000 0.758762 0.500000 Br
0.500000 0.500000 0.758762 Br
0.741238 0.000000 0.500000 Br
0.000000 0.000000 0.241238 Br
0.258762 0.000000 0.500000 Br
0.000000 0.741238 0.500000 Br
0.000000 0.258762 0.500000 Br
0.000000 0.000000 0.758762 Br
0.741238 0.500000 0.000000 Br
1.000000 0.500000 0.741238 Br
0.258762 0.500000 0.000000 Br
1.000000 0.241238 0.000000 Br
1.000000 0.758762 0.000000 Br
0.500000 0.258762 0.000000 Cl
1.000000 0.500000 0.258762 Cl
