Cs8 Tl2 Ag2 As4 Br24
1.0
11.387124 0.000000 0.000000
-0.000000 11.387124 0.000000
0.000000 0.000000 11.387124
Cs Tl Ag As Br
8 2 2 4 24
direct
0.750000 0.250000 0.250000 Cs
0.250000 0.750000 0.750000 Cs
0.750000 0.750000 0.750000 Cs
0.250000 0.250000 0.250000 Cs
0.250000 0.250000 0.750000 Cs
0.750000 0.750000 0.250000 Cs
0.250000 0.750000 0.250000 Cs
0.750000 0.250000 0.750000 Cs
0.500000 0.500000 0.500000 Tl
0.000000 0.000000 0.500000 Tl
0.500000 0.000000 0.000000 Ag
0.000000 0.500000 0.000000 Ag
0.000000 0.500000 0.500000 As
0.000000 0.000000 0.000000 As
0.500000 0.500000 0.000000 As
0.500000 0.000000 0.500000 As
0.229766 0.500000 0.500000 Br
0.500000 0.500000 0.229766 Br
0.770234 0.500000 0.500000 Br
0.500000 0.229766 0.500000 Br
0.500000 0.770234 0.500000 Br
0.500000 0.500000 0.770234 Br
0.229766 0.000000 1.000000 Br
0.500000 0.000000 0.729766 Br
0.770234 0.000000 0.000000 Br
0.500000 0.729766 1.000000 Br
0.500000 0.270234 0.000000 Br
0.500000 0.000000 0.270234 Br
0.729766 0.500000 1.000000 Br
0.000000 0.500000 0.729766 Br
0.270234 0.500000 0.000000 Br
0.000000 0.229766 1.000000 Br
1.000000 0.770234 0.000000 Br
0.000000 0.500000 0.270234 Br
0.729766 0.000000 0.500000 Br
0.000000 0.000000 0.229766 Br
0.270234 0.000000 0.500000 Br
0.000000 0.729766 0.500000 Br
0.000000 0.270234 0.500000 Br
0.000000 0.000000 0.770234 Br
