Cs8 In2 Bi4 Au2 Cl24
1.0
11.214131 0.000000 0.000000
-0.000000 11.214131 0.000000
0.000000 0.000000 11.214131
Cs In Bi Au Cl
8 2 4 2 24
direct
0.750000 0.750000 0.750000 Cs
0.250000 0.250000 0.250000 Cs
0.750000 0.250000 0.250000 Cs
0.250000 0.750000 0.750000 Cs
0.250000 0.750000 0.250000 Cs
0.750000 0.250000 0.750000 Cs
0.250000 0.250000 0.750000 Cs
0.750000 0.750000 0.250000 Cs
0.500000 0.500000 0.500000 In
0.000000 0.000000 0.500000 In
0.000000 0.000000 0.000000 Bi
1.000000 0.500000 0.500000 Bi
0.500000 0.000000 0.500000 Bi
0.500000 0.500000 1.000000 Bi
0.500000 0.000000 1.000000 Au
1.000000 0.500000 1.000000 Au
0.250280 0.000000 1.000000 Cl
0.500000 0.000000 0.750280 Cl
0.749720 0.000000 1.000000 Cl
0.500000 0.750280 0.000000 Cl
0.500000 0.249720 1.000000 Cl
0.500000 0.000000 0.249720 Cl
0.250280 0.500000 0.500000 Cl
0.500000 0.500000 0.250280 Cl
0.749720 0.500000 0.500000 Cl
0.500000 0.250280 0.500000 Cl
0.500000 0.749720 0.500000 Cl
0.500000 0.500000 0.749720 Cl
0.750280 0.000000 0.500000 Cl
0.000000 0.000000 0.250280 Cl
0.249720 0.000000 0.500000 Cl
0.000000 0.750280 0.500000 Cl
0.000000 0.249720 0.500000 Cl
0.000000 0.000000 0.749720 Cl
0.750280 0.500000 0.000000 Cl
1.000000 0.500000 0.750280 Cl
0.249720 0.500000 1.000000 Cl
0.000000 0.250280 0.000000 Cl
0.000000 0.749720 1.000000 Cl
1.000000 0.500000 0.249720 Cl
