Cs8 Ag3 Sb4 Au1 Br24
1.0
11.377177 0.000000 0.000000
-0.000000 11.377177 0.000000
0.000000 0.000000 11.377177
Cs Ag Sb Au Br
8 3 4 1 24
direct
0.750000 0.750000 0.750000 Cs
0.250000 0.250000 0.250000 Cs
0.750000 0.250000 0.250000 Cs
0.250000 0.750000 0.750000 Cs
0.250000 0.750000 0.250000 Cs
0.750000 0.250000 0.750000 Cs
0.250000 0.250000 0.750000 Cs
0.750000 0.750000 0.250000 Cs
0.500000 0.000000 1.000000 Ag
0.500000 0.500000 0.500000 Ag
0.000000 0.500000 1.000000 Ag
0.000000 0.000000 0.000000 Sb
0.000000 0.500000 0.500000 Sb
0.500000 0.000000 0.500000 Sb
0.500000 0.500000 1.000000 Sb
0.000000 0.000000 0.500000 Au
0.250090 0.000000 0.000000 Br
0.500000 0.000000 0.750090 Br
0.749910 0.000000 1.000000 Br
0.500000 0.750090 1.000000 Br
0.500000 0.249910 1.000000 Br
0.500000 0.000000 0.249910 Br
0.250090 0.500000 0.500000 Br
0.500000 0.500000 0.250090 Br
0.749910 0.500000 0.500000 Br
0.500000 0.250090 0.500000 Br
0.500000 0.749910 0.500000 Br
0.500000 0.500000 0.749910 Br
0.750090 0.000000 0.500000 Br
0.000000 0.000000 0.250090 Br
0.249910 0.000000 0.500000 Br
0.000000 0.750090 0.500000 Br
0.000000 0.249910 0.500000 Br
0.000000 0.000000 0.749910 Br
0.750090 0.500000 1.000000 Br
0.000000 0.500000 0.750090 Br
0.249910 0.500000 1.000000 Br
0.000000 0.250090 0.000000 Br
0.000000 0.749910 1.000000 Br
0.000000 0.500000 0.249910 Br
