Cs8 In4 Ga4 I12 Br12
1.0
11.850142 0.000000 0.000000
-0.000000 11.850142 0.000000
0.000000 0.000000 11.850142
Cs In Ga I Br
8 4 4 12 12
direct
0.250000 0.250000 0.250000 Cs
0.750000 0.750000 0.750000 Cs
0.250000 0.750000 0.750000 Cs
0.750000 0.250000 0.250000 Cs
0.750000 0.250000 0.750000 Cs
0.250000 0.750000 0.250000 Cs
0.750000 0.750000 0.250000 Cs
0.250000 0.250000 0.750000 Cs
1.000000 0.500000 0.500000 In
0.000000 0.000000 0.000000 In
0.500000 0.500000 0.000000 In
0.500000 0.000000 0.500000 In
0.500000 0.500000 0.500000 Ga
0.500000 0.000000 0.000000 Ga
1.000000 0.500000 0.000000 Ga
0.000000 0.000000 0.500000 Ga
0.243708 0.500000 0.500000 I
1.000000 0.500000 0.743708 I
0.000000 0.000000 0.756292 I
0.000000 0.756292 1.000000 I
0.256292 0.500000 0.000000 I
0.500000 0.256292 1.000000 I
0.500000 0.743708 0.000000 I
0.500000 0.500000 0.243708 I
0.256292 0.000000 0.500000 I
0.500000 0.000000 0.256292 I
0.500000 0.243708 0.500000 I
0.500000 0.000000 0.743708 I
0.756292 0.500000 0.500000 Br
1.000000 0.500000 0.256292 Br
1.000000 0.256292 0.500000 Br
1.000000 0.743708 0.500000 Br
0.756292 0.000000 1.000000 Br
0.243708 0.000000 0.000000 Br
1.000000 0.243708 0.000000 Br
0.000000 0.000000 0.243708 Br
0.500000 0.500000 0.756292 Br
0.743708 0.500000 0.000000 Br
0.743708 0.000000 0.500000 Br
0.500000 0.756292 0.500000 Br
