ALGO = F
EDIFF = 1e-05
EDIFFG = -0.01
ENCUT = 520
IBRION = 2
ICHARG = 1
ISIF = 3
ISMEAR = 0
ISPIN = 2
LORBIT = 11
LREAL = Auto
LWAVE = False
MAGMOM = 40*0.6
NELM = 100
NSW = 99
PREC = Accurate
SIGMA = 0.05
