Cs8 Tl1 Cu4 Bi3 Br24
1.0
11.170581 0.000000 0.000000
-0.000000 11.170581 0.000000
0.000000 0.000000 11.170581
Cs Tl Cu Bi Br
8 1 4 3 24
direct
0.750000 0.750000 0.750000 Cs
0.250000 0.250000 0.250000 Cs
0.750000 0.250000 0.250000 Cs
0.250000 0.750000 0.750000 Cs
0.250000 0.750000 0.250000 Cs
0.750000 0.250000 0.750000 Cs
0.250000 0.250000 0.750000 Cs
0.750000 0.750000 0.250000 Cs
0.500000 0.000000 0.500000 Tl
0.500000 0.000000 0.000000 Cu
0.500000 0.500000 0.500000 Cu
0.000000 0.000000 0.500000 Cu
0.000000 0.500000 0.000000 Cu
0.000000 0.000000 0.000000 Bi
0.000000 0.500000 0.500000 Bi
0.500000 0.500000 0.000000 Bi
0.263140 0.000000 0.000000 Br
0.500000 0.000000 0.763140 Br
0.736860 0.000000 0.000000 Br
0.500000 0.763140 0.000000 Br
0.500000 0.236860 0.000000 Br
0.500000 0.000000 0.236860 Br
0.263140 0.500000 0.500000 Br
0.500000 0.500000 0.263140 Br
0.736860 0.500000 0.500000 Br
0.500000 0.263140 0.500000 Br
0.500000 0.736860 0.500000 Br
0.500000 0.500000 0.736860 Br
0.763140 0.000000 0.500000 Br
0.000000 0.000000 0.263140 Br
0.236860 0.000000 0.500000 Br
1.000000 0.763140 0.500000 Br
0.000000 0.236860 0.500000 Br
0.000000 0.000000 0.736860 Br
0.763140 0.500000 1.000000 Br
0.000000 0.500000 0.763140 Br
0.236860 0.500000 0.000000 Br
1.000000 0.263140 0.000000 Br
0.000000 0.736860 0.000000 Br
0.000000 0.500000 0.236860 Br
