Cs8 Tl3 In1 Au4 I24
1.0
12.132319 0.000000 0.000000
-0.000000 12.132319 0.000000
0.000000 0.000000 12.132319
Cs Tl In Au I
8 3 1 4 24
direct
0.750000 0.750000 0.750000 Cs
0.250000 0.250000 0.250000 Cs
0.750000 0.250000 0.250000 Cs
0.250000 0.750000 0.750000 Cs
0.250000 0.750000 0.250000 Cs
0.750000 0.250000 0.750000 Cs
0.250000 0.250000 0.750000 Cs
0.750000 0.750000 0.250000 Cs
0.000000 0.000000 0.000000 Tl
0.500000 0.000000 0.500000 Tl
0.500000 0.500000 0.000000 Tl
0.000000 0.500000 0.500000 In
0.500000 0.000000 0.000000 Au
0.500000 0.500000 0.500000 Au
0.000000 0.000000 0.500000 Au
0.000000 0.500000 0.000000 Au
0.252042 0.000000 0.000000 I
0.500000 0.000000 0.752042 I
0.747958 0.000000 1.000000 I
0.500000 0.752042 1.000000 I
0.500000 0.247958 1.000000 I
0.500000 0.000000 0.247958 I
0.252042 0.500000 0.500000 I
0.500000 0.500000 0.252042 I
0.747958 0.500000 0.500000 I
0.500000 0.252042 0.500000 I
0.500000 0.747958 0.500000 I
0.500000 0.500000 0.747958 I
0.752042 0.000000 0.500000 I
0.000000 0.000000 0.252042 I
0.247958 0.000000 0.500000 I
0.000000 0.752042 0.500000 I
0.000000 0.247958 0.500000 I
0.000000 0.000000 0.747958 I
0.752042 0.500000 1.000000 I
0.000000 0.500000 0.752042 I
0.247958 0.500000 1.000000 I
1.000000 0.252042 0.000000 I
0.000000 0.747958 1.000000 I
0.000000 0.500000 0.247958 I
