Cs8 Tl3 Cu1 Bi4 Cl24
1.0
11.538125 0.000000 0.000000
-0.000000 11.538125 0.000000
0.000000 0.000000 11.538125
Cs Tl Cu Bi Cl
8 3 1 4 24
direct
0.750000 0.750000 0.750000 Cs
0.250000 0.250000 0.250000 Cs
0.750000 0.250000 0.250000 Cs
0.250000 0.750000 0.750000 Cs
0.250000 0.750000 0.250000 Cs
0.750000 0.250000 0.750000 Cs
0.250000 0.250000 0.750000 Cs
0.750000 0.750000 0.250000 Cs
0.500000 0.500000 0.500000 Tl
0.000000 0.000000 0.500000 Tl
1.000000 0.500000 0.000000 Tl
0.500000 0.000000 0.000000 Cu
0.000000 0.000000 0.000000 Bi
1.000000 0.500000 0.500000 Bi
0.500000 0.000000 0.500000 Bi
0.500000 0.500000 0.000000 Bi
0.259135 0.000000 0.000000 Cl
0.500000 0.000000 0.759135 Cl
0.740865 0.000000 0.000000 Cl
0.500000 0.759135 0.000000 Cl
0.500000 0.240865 0.000000 Cl
0.500000 0.000000 0.240865 Cl
0.259135 0.500000 0.500000 Cl
0.500000 0.500000 0.259135 Cl
0.740865 0.500000 0.500000 Cl
0.500000 0.259135 0.500000 Cl
0.500000 0.740865 0.500000 Cl
0.500000 0.500000 0.740865 Cl
0.759135 0.000000 0.500000 Cl
0.000000 0.000000 0.259135 Cl
0.240865 0.000000 0.500000 Cl
1.000000 0.759135 0.500000 Cl
1.000000 0.240865 0.500000 Cl
0.000000 0.000000 0.740865 Cl
0.759135 0.500000 0.000000 Cl
1.000000 0.500000 0.759135 Cl
0.240865 0.500000 0.000000 Cl
1.000000 0.259135 0.000000 Cl
1.000000 0.740865 0.000000 Cl
1.000000 0.500000 0.240865 Cl
