Cs8 Tl4 In4 Br7 Cl17
1.0
11.411564 0.000000 0.000000
-0.000000 11.411564 0.000000
0.000000 0.000000 11.411564
Cs Tl In Br Cl
8 4 4 7 17
direct
0.750000 0.250000 0.250000 Cs
0.250000 0.750000 0.750000 Cs
0.750000 0.750000 0.750000 Cs
0.250000 0.250000 0.250000 Cs
0.250000 0.250000 0.750000 Cs
0.750000 0.750000 0.250000 Cs
0.250000 0.750000 0.250000 Cs
0.750000 0.250000 0.750000 Cs
0.500000 0.500000 0.500000 Tl
0.500000 0.000000 1.000000 Tl
0.000000 0.500000 1.000000 Tl
0.000000 0.000000 0.500000 Tl
0.000000 0.500000 0.500000 In
0.000000 0.000000 0.000000 In
0.500000 0.500000 1.000000 In
0.500000 0.000000 0.500000 In
0.500000 0.500000 0.230622 Br
0.730622 0.500000 1.000000 Br
0.000000 0.500000 0.730622 Br
0.269378 0.500000 1.000000 Br
0.000000 0.769378 0.000000 Br
0.000000 0.730622 0.500000 Br
0.000000 0.269378 0.500000 Br
0.230622 0.500000 0.500000 Cl
0.769378 0.500000 0.500000 Cl
0.500000 0.230622 0.500000 Cl
0.500000 0.769378 0.500000 Cl
0.500000 0.500000 0.769378 Cl
0.230622 0.000000 1.000000 Cl
0.500000 0.000000 0.730622 Cl
0.769378 0.000000 1.000000 Cl
0.500000 0.730622 0.000000 Cl
0.500000 0.269378 1.000000 Cl
0.500000 0.000000 0.269378 Cl
0.000000 0.230622 1.000000 Cl
0.000000 0.500000 0.269378 Cl
0.730622 0.000000 0.500000 Cl
0.000000 0.000000 0.230622 Cl
0.269378 0.000000 0.500000 Cl
0.000000 0.000000 0.769378 Cl
