Cs8 Cu4 Bi4 Br18 Cl6
1.0
11.030965 0.000000 0.000000
-0.000000 11.030965 0.000000
0.000000 0.000000 11.030965
Cs Cu Bi Br Cl
8 4 4 18 6
direct
0.250000 0.250000 0.250000 Cs
0.250000 0.250000 0.750000 Cs
0.250000 0.750000 0.750000 Cs
0.250000 0.750000 0.250000 Cs
0.750000 0.250000 0.750000 Cs
0.750000 0.250000 0.250000 Cs
0.750000 0.750000 0.250000 Cs
0.750000 0.750000 0.750000 Cs
0.500000 0.000000 0.000000 Cu
0.500000 0.500000 0.500000 Cu
0.000000 0.000000 0.500000 Cu
1.000000 0.500000 0.000000 Cu
0.000000 0.000000 0.000000 Bi
1.000000 0.500000 0.500000 Bi
0.500000 0.000000 0.500000 Bi
0.500000 0.500000 0.000000 Bi
0.500000 0.000000 0.759723 Br
0.259723 0.000000 1.000000 Br
0.500000 0.240277 0.000000 Br
0.740277 0.000000 0.000000 Br
0.500000 0.500000 0.259723 Br
0.259723 0.500000 0.500000 Br
0.500000 0.500000 0.740277 Br
0.500000 0.740277 0.500000 Br
1.000000 0.759723 0.500000 Br
0.000000 0.000000 0.259723 Br
0.759723 0.000000 0.500000 Br
0.000000 0.000000 0.740277 Br
1.000000 0.240277 0.500000 Br
0.500000 0.259723 0.500000 Br
0.240277 0.000000 0.500000 Br
1.000000 0.500000 0.759723 Br
0.500000 0.759723 0.000000 Br
0.240277 0.500000 0.000000 Br
0.500000 0.000000 0.240277 Cl
0.000000 0.259723 1.000000 Cl
0.740277 0.500000 0.500000 Cl
0.759723 0.500000 0.000000 Cl
1.000000 0.500000 0.240277 Cl
1.000000 0.740277 0.000000 Cl
