Cs8 Ga4 Ag1 Au3 Cl24
1.0
10.416188 0.000000 0.000000
-0.000000 10.416188 0.000000
0.000000 0.000000 10.416188
Cs Ga Ag Au Cl
8 4 1 3 24
direct
0.750000 0.750000 0.750000 Cs
0.250000 0.250000 0.250000 Cs
0.750000 0.250000 0.250000 Cs
0.250000 0.750000 0.750000 Cs
0.250000 0.750000 0.250000 Cs
0.750000 0.250000 0.750000 Cs
0.250000 0.250000 0.750000 Cs
0.750000 0.750000 0.250000 Cs
0.000000 0.000000 0.000000 Ga
0.000000 0.500000 0.500000 Ga
0.500000 0.000000 0.500000 Ga
0.500000 0.500000 0.000000 Ga
0.000000 0.500000 0.000000 Ag
0.500000 0.000000 0.000000 Au
0.500000 0.500000 0.500000 Au
0.000000 0.000000 0.500000 Au
0.232697 0.000000 0.000000 Cl
0.500000 0.000000 0.732697 Cl
0.767303 0.000000 0.000000 Cl
0.500000 0.732697 0.000000 Cl
0.500000 0.267303 0.000000 Cl
0.500000 0.000000 0.267303 Cl
0.232697 0.500000 0.500000 Cl
0.500000 0.500000 0.232697 Cl
0.767303 0.500000 0.500000 Cl
0.500000 0.232697 0.500000 Cl
0.500000 0.767303 0.500000 Cl
0.500000 0.500000 0.767303 Cl
0.732697 0.000000 0.500000 Cl
0.000000 0.000000 0.232697 Cl
0.267303 0.000000 0.500000 Cl
1.000000 0.732697 0.500000 Cl
0.000000 0.267303 0.500000 Cl
0.000000 0.000000 0.767303 Cl
0.732697 0.500000 0.000000 Cl
0.000000 0.500000 0.732697 Cl
0.267303 0.500000 0.000000 Cl
1.000000 0.232697 0.000000 Cl
1.000000 0.767303 0.000000 Cl
0.000000 0.500000 0.267303 Cl
