Cs8 Tl1 Ga4 Au3 Cl24
1.0
10.444161 0.000000 0.000000
-0.000000 10.444161 0.000000
0.000000 0.000000 10.444161
Cs Tl Ga Au Cl
8 1 4 3 24
direct
0.250000 0.750000 0.250000 Cs
0.750000 0.250000 0.750000 Cs
0.250000 0.250000 0.750000 Cs
0.750000 0.750000 0.250000 Cs
0.750000 0.750000 0.750000 Cs
0.250000 0.250000 0.250000 Cs
0.750000 0.250000 0.250000 Cs
0.250000 0.750000 0.750000 Cs
0.500000 0.500000 0.500000 Tl
0.500000 0.000000 0.500000 Ga
0.500000 0.500000 0.000000 Ga
0.000000 0.000000 0.000000 Ga
1.000000 0.500000 0.500000 Ga
0.000000 0.000000 0.500000 Au
1.000000 0.500000 0.000000 Au
0.500000 0.000000 0.000000 Au
0.719525 0.000000 0.500000 Cl
0.000000 0.000000 0.219525 Cl
0.280475 0.000000 0.500000 Cl
1.000000 0.719525 0.500000 Cl
1.000000 0.280475 0.500000 Cl
0.000000 0.000000 0.780475 Cl
0.719525 0.500000 0.000000 Cl
1.000000 0.500000 0.719525 Cl
0.280475 0.500000 0.000000 Cl
1.000000 0.219525 0.000000 Cl
1.000000 0.780475 0.000000 Cl
1.000000 0.500000 0.280475 Cl
0.219525 0.000000 0.000000 Cl
0.500000 0.000000 0.719525 Cl
0.780475 0.000000 0.000000 Cl
0.500000 0.719525 0.000000 Cl
0.500000 0.280475 0.000000 Cl
0.500000 0.000000 0.280475 Cl
0.219525 0.500000 0.500000 Cl
0.500000 0.500000 0.219525 Cl
0.780475 0.500000 0.500000 Cl
0.500000 0.219525 0.500000 Cl
0.500000 0.780475 0.500000 Cl
0.500000 0.500000 0.780475 Cl
