Cs8 Tl3 Ag4 Bi1 Cl24
1.0
10.782607 0.000000 0.000000
-0.000000 10.782607 0.000000
0.000000 0.000000 10.782607
Cs Tl Ag Bi Cl
8 3 4 1 24
direct
0.250000 0.250000 0.750000 Cs
0.750000 0.250000 0.750000 Cs
0.250000 0.750000 0.250000 Cs
0.750000 0.750000 0.250000 Cs
0.750000 0.250000 0.250000 Cs
0.250000 0.250000 0.250000 Cs
0.750000 0.750000 0.750000 Cs
0.250000 0.750000 0.750000 Cs
0.000000 0.000000 0.000000 Tl
0.500000 0.000000 0.500000 Tl
0.500000 0.500000 0.000000 Tl
0.500000 0.000000 0.000000 Ag
0.500000 0.500000 0.500000 Ag
0.000000 0.000000 0.500000 Ag
0.000000 0.500000 0.000000 Ag
0.000000 0.500000 0.500000 Bi
0.500000 0.000000 0.749113 Cl
0.500000 0.249113 0.500000 Cl
0.500000 0.500000 0.750887 Cl
0.249113 0.000000 0.000000 Cl
0.750887 0.000000 1.000000 Cl
0.500000 0.250887 1.000000 Cl
0.500000 0.500000 0.249113 Cl
0.500000 0.749113 0.000000 Cl
0.500000 0.000000 0.250887 Cl
0.249113 0.500000 0.500000 Cl
0.750887 0.500000 0.500000 Cl
0.500000 0.750887 0.500000 Cl
0.000000 0.000000 0.249113 Cl
0.000000 0.249113 0.000000 Cl
0.000000 0.500000 0.250887 Cl
0.749113 0.000000 0.500000 Cl
0.250887 0.000000 0.500000 Cl
1.000000 0.250887 0.500000 Cl
0.000000 0.500000 0.749113 Cl
0.000000 0.749113 0.500000 Cl
0.000000 0.000000 0.750887 Cl
0.749113 0.500000 1.000000 Cl
0.250887 0.500000 0.000000 Cl
0.000000 0.750887 1.000000 Cl
