Cs8 Sc4 In2 Au2 Br24
1.0
11.421807 0.000000 0.000000
-0.000000 11.421807 0.000000
0.000000 0.000000 11.421807
Cs Sc In Au Br
8 4 2 2 24
direct
0.750000 0.750000 0.750000 Cs
0.250000 0.250000 0.250000 Cs
0.750000 0.250000 0.250000 Cs
0.250000 0.750000 0.750000 Cs
0.250000 0.750000 0.250000 Cs
0.750000 0.250000 0.750000 Cs
0.250000 0.250000 0.750000 Cs
0.750000 0.750000 0.250000 Cs
0.000000 0.000000 0.000000 Sc
1.000000 0.500000 0.500000 Sc
0.500000 0.000000 0.500000 Sc
0.500000 0.500000 0.000000 Sc
0.500000 0.000000 0.000000 In
1.000000 0.500000 0.000000 In
0.500000 0.500000 0.500000 Au
0.000000 0.000000 0.500000 Au
0.228758 0.000000 1.000000 Br
0.500000 0.000000 0.728758 Br
0.771242 0.000000 1.000000 Br
0.500000 0.728758 0.000000 Br
0.500000 0.271242 1.000000 Br
0.500000 0.000000 0.271242 Br
0.228758 0.500000 0.500000 Br
0.500000 0.500000 0.228758 Br
0.771242 0.500000 0.500000 Br
0.500000 0.228758 0.500000 Br
0.500000 0.771242 0.500000 Br
0.500000 0.500000 0.771242 Br
0.728758 0.000000 0.500000 Br
0.000000 0.000000 0.228758 Br
0.271242 0.000000 0.500000 Br
0.000000 0.728758 0.500000 Br
1.000000 0.271242 0.500000 Br
0.000000 0.000000 0.771242 Br
0.728758 0.500000 1.000000 Br
1.000000 0.500000 0.728758 Br
0.271242 0.500000 0.000000 Br
0.000000 0.228758 0.000000 Br
0.000000 0.771242 1.000000 Br
1.000000 0.500000 0.271242 Br
