Cs8 In2 Ga2 Ag4 I24
1.0
11.912655 0.000000 0.000000
-0.000000 11.912655 0.000000
0.000000 0.000000 11.912655
Cs In Ga Ag I
8 2 2 4 24
direct
0.750000 0.750000 0.750000 Cs
0.250000 0.250000 0.250000 Cs
0.750000 0.250000 0.250000 Cs
0.250000 0.750000 0.750000 Cs
0.250000 0.750000 0.250000 Cs
0.750000 0.250000 0.750000 Cs
0.250000 0.250000 0.750000 Cs
0.750000 0.750000 0.250000 Cs
0.000000 0.000000 0.000000 In
0.500000 0.000000 0.500000 In
0.000000 0.500000 0.500000 Ga
0.500000 0.500000 1.000000 Ga
0.500000 0.000000 1.000000 Ag
0.500000 0.500000 0.500000 Ag
0.000000 0.000000 0.500000 Ag
0.000000 0.500000 1.000000 Ag
0.244350 0.000000 0.000000 I
0.500000 0.000000 0.744350 I
0.755650 0.000000 1.000000 I
0.500000 0.744350 0.000000 I
0.500000 0.255650 1.000000 I
0.500000 0.000000 0.255650 I
0.244350 0.500000 0.500000 I
0.500000 0.500000 0.244350 I
0.755650 0.500000 0.500000 I
0.500000 0.244350 0.500000 I
0.500000 0.755650 0.500000 I
0.500000 0.500000 0.755650 I
0.744350 0.000000 0.500000 I
0.000000 0.000000 0.244350 I
0.255650 0.000000 0.500000 I
0.000000 0.744350 0.500000 I
0.000000 0.255650 0.500000 I
0.000000 0.000000 0.755650 I
0.744350 0.500000 0.000000 I
0.000000 0.500000 0.744350 I
0.255650 0.500000 0.000000 I
0.000000 0.244350 1.000000 I
0.000000 0.755650 1.000000 I
0.000000 0.500000 0.255650 I
