Cs8 In2 Sb4 Au2 Br24
1.0
11.598438 0.000000 0.000000
-0.000000 11.598438 0.000000
0.000000 0.000000 11.598438
Cs In Sb Au Br
8 2 4 2 24
direct
0.750000 0.750000 0.750000 Cs
0.250000 0.250000 0.250000 Cs
0.750000 0.250000 0.250000 Cs
0.250000 0.750000 0.750000 Cs
0.250000 0.750000 0.250000 Cs
0.750000 0.250000 0.750000 Cs
0.250000 0.250000 0.750000 Cs
0.750000 0.750000 0.250000 Cs
0.500000 0.000000 1.000000 In
1.000000 0.500000 1.000000 In
0.000000 0.000000 0.000000 Sb
1.000000 0.500000 0.500000 Sb
0.500000 0.000000 0.500000 Sb
0.500000 0.500000 1.000000 Sb
0.500000 0.500000 0.500000 Au
0.000000 0.000000 0.500000 Au
0.250090 0.000000 0.000000 Br
0.500000 0.000000 0.750090 Br
0.749910 0.000000 0.000000 Br
0.500000 0.750090 0.000000 Br
0.500000 0.249910 1.000000 Br
0.500000 0.000000 0.249910 Br
0.250090 0.500000 0.500000 Br
0.500000 0.500000 0.250090 Br
0.749910 0.500000 0.500000 Br
0.500000 0.250090 0.500000 Br
0.500000 0.749910 0.500000 Br
0.500000 0.500000 0.749910 Br
0.750090 0.000000 0.500000 Br
0.000000 0.000000 0.250090 Br
0.249910 0.000000 0.500000 Br
1.000000 0.750090 0.500000 Br
0.000000 0.249910 0.500000 Br
0.000000 0.000000 0.749910 Br
0.750090 0.500000 1.000000 Br
1.000000 0.500000 0.750090 Br
0.249910 0.500000 0.000000 Br
0.000000 0.250090 0.000000 Br
1.000000 0.749910 0.000000 Br
1.000000 0.500000 0.249910 Br
