Cs8 Ag4 Bi4 Br12 Cl12
1.0
11.229476 0.000000 0.000000
-0.000000 11.229476 0.000000
0.000000 0.000000 11.229476
Cs Ag Bi Br Cl
8 4 4 12 12
direct
0.750000 0.250000 0.250000 Cs
0.250000 0.250000 0.250000 Cs
0.750000 0.750000 0.750000 Cs
0.250000 0.750000 0.750000 Cs
0.250000 0.250000 0.750000 Cs
0.750000 0.250000 0.750000 Cs
0.250000 0.750000 0.250000 Cs
0.750000 0.750000 0.250000 Cs
0.000000 0.000000 0.500000 Ag
1.000000 0.500000 0.000000 Ag
0.500000 0.000000 1.000000 Ag
0.500000 0.500000 0.500000 Ag
0.500000 0.000000 0.500000 Bi
0.500000 0.500000 1.000000 Bi
0.000000 0.000000 0.000000 Bi
1.000000 0.500000 0.500000 Bi
0.000000 0.000000 0.249113 Br
0.000000 0.249113 0.000000 Br
0.749113 0.000000 0.500000 Br
1.000000 0.250887 0.500000 Br
1.000000 0.500000 0.250887 Br
0.749113 0.500000 1.000000 Br
0.000000 0.750887 1.000000 Br
0.500000 0.000000 0.749113 Br
0.500000 0.249113 0.500000 Br
0.500000 0.749113 0.000000 Br
0.750887 0.500000 0.500000 Br
0.500000 0.750887 0.500000 Br
0.000000 0.000000 0.750887 Cl
0.250887 0.000000 0.500000 Cl
1.000000 0.500000 0.749113 Cl
1.000000 0.749113 0.500000 Cl
0.250887 0.500000 1.000000 Cl
0.500000 0.000000 0.250887 Cl
0.249113 0.000000 1.000000 Cl
0.750887 0.000000 1.000000 Cl
0.500000 0.250887 1.000000 Cl
0.500000 0.500000 0.249113 Cl
0.500000 0.500000 0.750887 Cl
0.249113 0.500000 0.500000 Cl
