Cs8 Tl4 Sb4 I1 Br23
1.0
12.009324 0.000000 0.000000
-0.000000 12.009324 0.000000
0.000000 0.000000 12.009324
Cs Tl Sb I Br
8 4 4 1 23
direct
0.750000 0.250000 0.250000 Cs
0.250000 0.750000 0.750000 Cs
0.750000 0.750000 0.750000 Cs
0.250000 0.250000 0.250000 Cs
0.250000 0.250000 0.750000 Cs
0.750000 0.750000 0.250000 Cs
0.250000 0.750000 0.250000 Cs
0.750000 0.250000 0.750000 Cs
0.500000 0.500000 0.500000 Tl
0.500000 0.000000 0.000000 Tl
0.000000 0.500000 0.000000 Tl
0.000000 0.000000 0.500000 Tl
0.000000 0.500000 0.500000 Sb
0.000000 0.000000 0.000000 Sb
0.500000 0.500000 0.000000 Sb
0.500000 0.000000 0.500000 Sb
1.000000 0.235524 1.000000 I
0.235524 0.500000 0.500000 Br
0.500000 0.500000 0.235524 Br
0.764476 0.500000 0.500000 Br
0.500000 0.235524 0.500000 Br
0.500000 0.764476 0.500000 Br
0.500000 0.500000 0.764476 Br
0.235524 0.000000 1.000000 Br
0.500000 0.000000 0.735524 Br
0.764476 0.000000 0.000000 Br
0.500000 0.735524 0.000000 Br
0.500000 0.264476 0.000000 Br
0.500000 0.000000 0.264476 Br
0.735524 0.500000 1.000000 Br
0.000000 0.500000 0.735524 Br
0.264476 0.500000 0.000000 Br
1.000000 0.764476 0.000000 Br
0.000000 0.500000 0.264476 Br
0.735524 0.000000 0.500000 Br
0.000000 0.000000 0.235524 Br
0.264476 0.000000 0.500000 Br
1.000000 0.735524 0.500000 Br
1.000000 0.264476 0.500000 Br
0.000000 0.000000 0.764476 Br
