Cs8 Tl4 Ga1 As3 Br24
1.0
11.625794 0.000000 0.000000
-0.000000 11.625794 0.000000
0.000000 0.000000 11.625794
Cs Tl Ga As Br
8 4 1 3 24
direct
0.250000 0.750000 0.250000 Cs
0.750000 0.250000 0.750000 Cs
0.250000 0.250000 0.750000 Cs
0.750000 0.750000 0.250000 Cs
0.750000 0.750000 0.750000 Cs
0.250000 0.250000 0.250000 Cs
0.750000 0.250000 0.250000 Cs
0.250000 0.750000 0.750000 Cs
0.000000 0.000000 0.500000 Tl
1.000000 0.500000 0.000000 Tl
0.500000 0.000000 1.000000 Tl
0.500000 0.500000 0.500000 Tl
0.500000 0.500000 1.000000 Ga
0.500000 0.000000 0.500000 As
0.000000 0.000000 0.000000 As
1.000000 0.500000 0.500000 As
0.729766 0.000000 0.500000 Br
0.000000 0.000000 0.229766 Br
0.270234 0.000000 0.500000 Br
0.000000 0.729766 0.500000 Br
0.000000 0.270234 0.500000 Br
0.000000 0.000000 0.770234 Br
0.729766 0.500000 1.000000 Br
1.000000 0.500000 0.729766 Br
0.270234 0.500000 0.000000 Br
0.000000 0.229766 0.000000 Br
0.000000 0.770234 0.000000 Br
1.000000 0.500000 0.270234 Br
0.229766 0.000000 0.000000 Br
0.500000 0.000000 0.729766 Br
0.770234 0.000000 1.000000 Br
0.500000 0.729766 1.000000 Br
0.500000 0.270234 1.000000 Br
0.500000 0.000000 0.270234 Br
0.229766 0.500000 0.500000 Br
0.500000 0.500000 0.229766 Br
0.770234 0.500000 0.500000 Br
0.500000 0.229766 0.500000 Br
0.500000 0.770234 0.500000 Br
0.500000 0.500000 0.770234 Br
