Cs8 Tl4 In4 I12 Br12
1.0
12.213494 0.000000 0.000000
-0.000000 12.213494 0.000000
0.000000 0.000000 12.213494
Cs Tl In I Br
8 4 4 12 12
direct
0.250000 0.250000 0.250000 Cs
0.750000 0.750000 0.750000 Cs
0.250000 0.750000 0.750000 Cs
0.750000 0.250000 0.250000 Cs
0.750000 0.250000 0.750000 Cs
0.250000 0.750000 0.250000 Cs
0.750000 0.750000 0.250000 Cs
0.250000 0.250000 0.750000 Cs
0.000000 0.500000 0.500000 Tl
0.000000 0.000000 0.000000 Tl
0.500000 0.500000 0.000000 Tl
0.500000 0.000000 0.500000 Tl
0.500000 0.500000 0.500000 In
0.500000 0.000000 0.000000 In
0.000000 0.500000 0.000000 In
0.000000 0.000000 0.500000 In
0.000000 0.230622 0.500000 I
1.000000 0.769378 0.500000 I
0.000000 0.500000 0.769378 I
0.269378 0.000000 0.000000 I
0.230622 0.500000 0.000000 I
0.500000 0.500000 0.730622 I
0.769378 0.500000 0.000000 I
0.500000 0.769378 0.000000 I
0.500000 0.500000 0.269378 I
0.769378 0.000000 0.500000 I
0.500000 0.730622 0.500000 I
0.500000 0.000000 0.769378 I
0.730622 0.500000 0.500000 Br
0.000000 0.500000 0.230622 Br
0.269378 0.500000 0.500000 Br
0.730622 0.000000 0.000000 Br
0.000000 0.000000 0.730622 Br
1.000000 0.730622 0.000000 Br
1.000000 0.269378 0.000000 Br
0.000000 0.000000 0.269378 Br
0.500000 0.230622 1.000000 Br
0.230622 0.000000 0.500000 Br
0.500000 0.000000 0.230622 Br
0.500000 0.269378 0.500000 Br
