Cs8 Tl1 Ag4 Sb3 Br24
1.0
11.375729 0.000000 0.000000
-0.000000 11.375729 0.000000
0.000000 0.000000 11.375729
Cs Tl Ag Sb Br
8 1 4 3 24
direct
0.750000 0.750000 0.750000 Cs
0.250000 0.250000 0.250000 Cs
0.750000 0.250000 0.250000 Cs
0.250000 0.750000 0.750000 Cs
0.250000 0.750000 0.250000 Cs
0.750000 0.250000 0.750000 Cs
0.250000 0.250000 0.750000 Cs
0.750000 0.750000 0.250000 Cs
0.000000 0.000000 0.000000 Tl
0.500000 0.000000 0.000000 Ag
0.500000 0.500000 0.500000 Ag
0.000000 0.000000 0.500000 Ag
0.000000 0.500000 0.000000 Ag
0.000000 0.500000 0.500000 Sb
0.500000 0.000000 0.500000 Sb
0.500000 0.500000 0.000000 Sb
0.251926 0.000000 0.000000 Br
0.500000 0.000000 0.751926 Br
0.748074 0.000000 1.000000 Br
0.500000 0.751926 0.000000 Br
0.500000 0.248074 0.000000 Br
0.500000 0.000000 0.248074 Br
0.251926 0.500000 0.500000 Br
0.500000 0.500000 0.251926 Br
0.748074 0.500000 0.500000 Br
0.500000 0.251926 0.500000 Br
0.500000 0.748074 0.500000 Br
0.500000 0.500000 0.748074 Br
0.751926 0.000000 0.500000 Br
0.000000 0.000000 0.251926 Br
0.248074 0.000000 0.500000 Br
0.000000 0.751926 0.500000 Br
1.000000 0.248074 0.500000 Br
0.000000 0.000000 0.748074 Br
0.751926 0.500000 1.000000 Br
0.000000 0.500000 0.751926 Br
0.248074 0.500000 0.000000 Br
0.000000 0.251926 0.000000 Br
0.000000 0.748074 0.000000 Br
0.000000 0.500000 0.248074 Br
