Cs8 In3 Ag4 Sb1 Br24
1.0
11.231823 0.000000 0.000000
-0.000000 11.231823 0.000000
0.000000 0.000000 11.231823
Cs In Ag Sb Br
8 3 4 1 24
direct
0.750000 0.750000 0.750000 Cs
0.250000 0.250000 0.250000 Cs
0.750000 0.250000 0.250000 Cs
0.250000 0.750000 0.750000 Cs
0.250000 0.750000 0.250000 Cs
0.750000 0.250000 0.750000 Cs
0.250000 0.250000 0.750000 Cs
0.750000 0.750000 0.250000 Cs
0.000000 0.000000 0.000000 In
1.000000 0.500000 0.500000 In
0.500000 0.500000 0.000000 In
0.500000 0.000000 0.000000 Ag
0.500000 0.500000 0.500000 Ag
0.000000 0.000000 0.500000 Ag
1.000000 0.500000 0.000000 Ag
0.500000 0.000000 0.500000 Sb
0.248446 0.000000 0.000000 Br
0.500000 0.000000 0.748446 Br
0.751554 0.000000 0.000000 Br
0.500000 0.748446 0.000000 Br
0.500000 0.251554 0.000000 Br
0.500000 0.000000 0.251554 Br
0.248446 0.500000 0.500000 Br
0.500000 0.500000 0.248446 Br
0.751554 0.500000 0.500000 Br
0.500000 0.248446 0.500000 Br
0.500000 0.751554 0.500000 Br
0.500000 0.500000 0.751554 Br
0.748446 0.000000 0.500000 Br
0.000000 0.000000 0.248446 Br
0.251554 0.000000 0.500000 Br
1.000000 0.748446 0.500000 Br
1.000000 0.251554 0.500000 Br
0.000000 0.000000 0.751554 Br
0.748446 0.500000 0.000000 Br
1.000000 0.500000 0.748446 Br
0.251554 0.500000 0.000000 Br
1.000000 0.248446 0.000000 Br
1.000000 0.751554 0.000000 Br
1.000000 0.500000 0.251554 Br
