Cs8 In3 Cu1 Sb4 I24
1.0
12.389371 0.000000 0.000000
-0.000000 12.389371 0.000000
0.000000 0.000000 12.389371
Cs In Cu Sb I
8 3 1 4 24
direct
0.750000 0.750000 0.750000 Cs
0.250000 0.250000 0.250000 Cs
0.750000 0.250000 0.250000 Cs
0.250000 0.750000 0.750000 Cs
0.250000 0.750000 0.250000 Cs
0.750000 0.250000 0.750000 Cs
0.250000 0.250000 0.750000 Cs
0.750000 0.750000 0.250000 Cs
0.500000 0.000000 0.000000 In
0.500000 0.500000 0.500000 In
0.000000 0.000000 0.500000 In
0.000000 0.500000 0.000000 Cu
0.000000 0.000000 0.000000 Sb
0.000000 0.500000 0.500000 Sb
0.500000 0.000000 0.500000 Sb
0.500000 0.500000 0.000000 Sb
0.242467 0.000000 0.000000 I
0.500000 0.000000 0.742467 I
0.757533 0.000000 1.000000 I
0.500000 0.742467 0.000000 I
0.500000 0.257533 0.000000 I
0.500000 0.000000 0.257533 I
0.242467 0.500000 0.500000 I
0.500000 0.500000 0.242467 I
0.757533 0.500000 0.500000 I
0.500000 0.242467 0.500000 I
0.500000 0.757533 0.500000 I
0.500000 0.500000 0.757533 I
0.742467 0.000000 0.500000 I
0.000000 0.000000 0.242467 I
0.257533 0.000000 0.500000 I
1.000000 0.742467 0.500000 I
1.000000 0.257533 0.500000 I
0.000000 0.000000 0.757533 I
0.742467 0.500000 0.000000 I
0.000000 0.500000 0.742467 I
0.257533 0.500000 0.000000 I
1.000000 0.242467 1.000000 I
0.000000 0.757533 1.000000 I
0.000000 0.500000 0.257533 I
