Cs8 In1 Ga4 Au3 Cl24
1.0
10.442577 0.000000 0.000000
-0.000000 10.442577 0.000000
0.000000 0.000000 10.442577
Cs In Ga Au Cl
8 1 4 3 24
direct
0.250000 0.250000 0.250000 Cs
0.750000 0.750000 0.750000 Cs
0.250000 0.750000 0.750000 Cs
0.750000 0.250000 0.250000 Cs
0.750000 0.250000 0.750000 Cs
0.250000 0.750000 0.250000 Cs
0.750000 0.750000 0.250000 Cs
0.250000 0.250000 0.750000 Cs
0.500000 0.000000 0.500000 In
0.500000 0.500000 0.500000 Ga
0.500000 0.000000 0.000000 Ga
0.000000 0.500000 0.000000 Ga
0.000000 0.000000 0.500000 Ga
0.000000 0.500000 0.500000 Au
0.000000 0.000000 0.000000 Au
0.500000 0.500000 0.000000 Au
0.765221 0.500000 0.500000 Cl
0.000000 0.500000 0.265221 Cl
0.234779 0.500000 0.500000 Cl
1.000000 0.265221 0.500000 Cl
0.000000 0.734779 0.500000 Cl
0.000000 0.500000 0.734779 Cl
0.765221 0.000000 0.000000 Cl
0.000000 0.000000 0.765221 Cl
0.234779 0.000000 1.000000 Cl
0.000000 0.765221 0.000000 Cl
0.000000 0.234779 1.000000 Cl
0.000000 0.000000 0.234779 Cl
0.265221 0.500000 0.000000 Cl
0.500000 0.500000 0.765221 Cl
0.734779 0.500000 1.000000 Cl
0.500000 0.265221 0.000000 Cl
0.500000 0.734779 0.000000 Cl
0.500000 0.500000 0.234779 Cl
0.265221 0.000000 0.500000 Cl
0.500000 0.000000 0.265221 Cl
0.734779 0.000000 0.500000 Cl
0.500000 0.765221 0.500000 Cl
0.500000 0.234779 0.500000 Cl
0.500000 0.000000 0.734779 Cl
