Cs8 In4 Ag4 I23 Br1
1.0
11.990779 0.000000 0.000000
-0.000000 11.990779 0.000000
0.000000 0.000000 11.990779
Cs In Ag I Br
8 4 4 23 1
direct
0.750000 0.750000 0.750000 Cs
0.250000 0.250000 0.250000 Cs
0.750000 0.250000 0.250000 Cs
0.250000 0.750000 0.750000 Cs
0.250000 0.750000 0.250000 Cs
0.750000 0.250000 0.750000 Cs
0.250000 0.250000 0.750000 Cs
0.750000 0.750000 0.250000 Cs
0.000000 0.000000 0.000000 In
1.000000 0.500000 0.500000 In
0.500000 0.000000 0.500000 In
0.500000 0.500000 0.000000 In
0.500000 0.000000 0.000000 Ag
0.500000 0.500000 0.500000 Ag
0.000000 0.000000 0.500000 Ag
1.000000 0.500000 0.000000 Ag
0.248032 0.000000 0.000000 I
0.500000 0.000000 0.748032 I
0.751968 0.000000 1.000000 I
0.500000 0.748032 0.000000 I
0.500000 0.251968 1.000000 I
0.500000 0.000000 0.251968 I
0.248032 0.500000 0.500000 I
0.500000 0.500000 0.248032 I
0.751968 0.500000 0.500000 I
0.500000 0.248032 0.500000 I
0.500000 0.751968 0.500000 I
0.500000 0.500000 0.751968 I
0.748032 0.000000 0.500000 I
0.000000 0.000000 0.248032 I
0.251968 0.000000 0.500000 I
1.000000 0.748032 0.500000 I
1.000000 0.251968 0.500000 I
0.000000 0.000000 0.751968 I
0.748032 0.500000 0.000000 I
1.000000 0.500000 0.748032 I
0.251968 0.500000 0.000000 I
1.000000 0.248032 0.000000 I
1.000000 0.500000 0.251968 I
1.000000 0.751968 0.000000 Br
