Cs8 Tl4 Sb4 I6 Br18
1.0
12.185414 0.000000 0.000000
-0.000000 12.185414 0.000000
0.000000 0.000000 12.185414
Cs Tl Sb I Br
8 4 4 6 18
direct
0.250000 0.250000 0.750000 Cs
0.750000 0.750000 0.250000 Cs
0.250000 0.750000 0.250000 Cs
0.750000 0.250000 0.750000 Cs
0.750000 0.250000 0.250000 Cs
0.250000 0.750000 0.750000 Cs
0.750000 0.750000 0.750000 Cs
0.250000 0.250000 0.250000 Cs
1.000000 0.500000 0.000000 Tl
0.000000 0.000000 0.500000 Tl
0.500000 0.500000 0.500000 Tl
0.500000 0.000000 0.000000 Tl
0.500000 0.500000 0.000000 Sb
0.500000 0.000000 0.500000 Sb
1.000000 0.500000 0.500000 Sb
0.000000 0.000000 0.000000 Sb
1.000000 0.764476 0.000000 I
0.735524 0.000000 0.500000 I
1.000000 0.735524 0.500000 I
0.764476 0.500000 0.500000 I
0.500000 0.500000 0.764476 I
0.500000 0.264476 0.000000 I
0.735524 0.500000 0.000000 Br
1.000000 0.500000 0.735524 Br
0.264476 0.500000 0.000000 Br
1.000000 0.235524 0.000000 Br
1.000000 0.500000 0.264476 Br
0.000000 0.000000 0.235524 Br
0.264476 0.000000 0.500000 Br
1.000000 0.264476 0.500000 Br
0.000000 0.000000 0.764476 Br
0.235524 0.500000 0.500000 Br
0.500000 0.500000 0.235524 Br
0.500000 0.235524 0.500000 Br
0.500000 0.764476 0.500000 Br
0.235524 0.000000 0.000000 Br
0.500000 0.000000 0.735524 Br
0.764476 0.000000 0.000000 Br
0.500000 0.735524 0.000000 Br
0.500000 0.000000 0.264476 Br
