Cs8 Ga4 Ag4 Br2 Cl22
1.0
10.462910 0.000000 0.000000
-0.000000 10.462910 0.000000
0.000000 0.000000 10.462910
Cs Ga Ag Br Cl
8 4 4 2 22
direct
0.750000 0.750000 0.750000 Cs
0.250000 0.250000 0.250000 Cs
0.750000 0.250000 0.250000 Cs
0.250000 0.750000 0.750000 Cs
0.250000 0.750000 0.250000 Cs
0.750000 0.250000 0.750000 Cs
0.250000 0.250000 0.750000 Cs
0.750000 0.750000 0.250000 Cs
0.000000 0.000000 0.000000 Ga
0.000000 0.500000 0.500000 Ga
0.500000 0.000000 0.500000 Ga
0.500000 0.500000 1.000000 Ga
0.500000 0.000000 1.000000 Ag
0.500000 0.500000 0.500000 Ag
0.000000 0.000000 0.500000 Ag
0.000000 0.500000 1.000000 Ag
0.500000 0.737409 1.000000 Br
0.262591 0.500000 1.000000 Br
0.237409 0.000000 0.000000 Cl
0.500000 0.000000 0.737409 Cl
0.762591 0.000000 1.000000 Cl
0.500000 0.262591 1.000000 Cl
0.500000 0.000000 0.262591 Cl
0.237409 0.500000 0.500000 Cl
0.500000 0.500000 0.237409 Cl
0.762591 0.500000 0.500000 Cl
0.500000 0.237409 0.500000 Cl
0.500000 0.762591 0.500000 Cl
0.500000 0.500000 0.762591 Cl
0.737409 0.000000 0.500000 Cl
0.000000 0.000000 0.237409 Cl
0.262591 0.000000 0.500000 Cl
0.000000 0.737409 0.500000 Cl
0.000000 0.262591 0.500000 Cl
0.000000 0.000000 0.762591 Cl
0.737409 0.500000 1.000000 Cl
0.000000 0.500000 0.737409 Cl
0.000000 0.237409 1.000000 Cl
0.000000 0.762591 1.000000 Cl
0.000000 0.500000 0.262591 Cl
