Cs8 Cu4 Bi4 I7 Br17
1.0
11.405434 0.000000 0.000000
-0.000000 11.405434 0.000000
0.000000 0.000000 11.405434
Cs Cu Bi I Br
8 4 4 7 17
direct
0.250000 0.750000 0.750000 Cs
0.250000 0.750000 0.250000 Cs
0.250000 0.250000 0.250000 Cs
0.250000 0.250000 0.750000 Cs
0.750000 0.750000 0.250000 Cs
0.750000 0.750000 0.750000 Cs
0.750000 0.250000 0.750000 Cs
0.750000 0.250000 0.250000 Cs
0.500000 0.500000 0.500000 Cu
0.500000 0.000000 0.000000 Cu
1.000000 0.500000 0.000000 Cu
0.000000 0.000000 0.500000 Cu
1.000000 0.500000 0.500000 Bi
0.000000 0.000000 0.000000 Bi
0.500000 0.500000 0.000000 Bi
0.500000 0.000000 0.500000 Bi
0.500000 0.500000 0.260163 I
0.260163 0.500000 0.500000 I
0.500000 0.739837 0.500000 I
0.000000 0.760163 0.500000 I
0.500000 0.760163 0.000000 I
0.760163 0.000000 0.500000 I
1.000000 0.239837 0.500000 I
0.500000 0.500000 0.739837 Br
0.739837 0.500000 0.500000 Br
0.500000 0.000000 0.760163 Br
0.260163 0.000000 0.000000 Br
0.500000 0.000000 0.239837 Br
0.500000 0.239837 0.000000 Br
1.000000 0.260163 0.000000 Br
0.739837 0.000000 0.000000 Br
1.000000 0.500000 0.760163 Br
0.760163 0.500000 0.000000 Br
1.000000 0.500000 0.239837 Br
1.000000 0.739837 0.000000 Br
0.239837 0.500000 0.000000 Br
0.000000 0.000000 0.260163 Br
0.000000 0.000000 0.739837 Br
0.500000 0.260163 0.500000 Br
0.239837 0.000000 0.500000 Br
