Cs8 Tl4 In2 Sb2 I24
1.0
12.660260 0.000000 0.000000
-0.000000 12.660260 0.000000
0.000000 0.000000 12.660260
Cs Tl In Sb I
8 4 2 2 24
direct
0.250000 0.250000 0.250000 Cs
0.750000 0.750000 0.750000 Cs
0.250000 0.750000 0.750000 Cs
0.750000 0.250000 0.250000 Cs
0.750000 0.250000 0.750000 Cs
0.250000 0.750000 0.250000 Cs
0.750000 0.750000 0.250000 Cs
0.250000 0.250000 0.750000 Cs
1.000000 0.500000 0.500000 Tl
0.000000 0.000000 0.000000 Tl
0.500000 0.500000 0.000000 Tl
0.500000 0.000000 0.500000 Tl
0.500000 0.500000 0.500000 In
0.000000 0.000000 0.500000 In
0.500000 0.000000 0.000000 Sb
1.000000 0.500000 0.000000 Sb
0.734798 0.500000 0.500000 I
1.000000 0.500000 0.234798 I
0.265202 0.500000 0.500000 I
1.000000 0.234798 0.500000 I
0.000000 0.765202 0.500000 I
1.000000 0.500000 0.765202 I
0.734798 0.000000 0.000000 I
0.000000 0.000000 0.734798 I
0.265202 0.000000 0.000000 I
0.000000 0.734798 0.000000 I
1.000000 0.265202 0.000000 I
0.000000 0.000000 0.265202 I
0.234798 0.500000 0.000000 I
0.500000 0.500000 0.734798 I
0.765202 0.500000 1.000000 I
0.500000 0.234798 0.000000 I
0.500000 0.765202 0.000000 I
0.500000 0.500000 0.265202 I
0.234798 0.000000 0.500000 I
0.500000 0.000000 0.234798 I
0.765202 0.000000 0.500000 I
0.500000 0.734798 0.500000 I
0.500000 0.265202 0.500000 I
0.500000 0.000000 0.765202 I
