Cs8 Tl4 Ag1 Au3 Cl24
1.0
10.792973 0.000000 0.000000
-0.000000 10.792973 0.000000
0.000000 0.000000 10.792973
Cs Tl Ag Au Cl
8 4 1 3 24
direct
0.750000 0.750000 0.750000 Cs
0.250000 0.250000 0.250000 Cs
0.750000 0.250000 0.250000 Cs
0.250000 0.750000 0.750000 Cs
0.250000 0.750000 0.250000 Cs
0.750000 0.250000 0.750000 Cs
0.250000 0.250000 0.750000 Cs
0.750000 0.750000 0.250000 Cs
0.000000 0.000000 0.000000 Tl
1.000000 0.500000 0.500000 Tl
0.500000 0.000000 0.500000 Tl
0.500000 0.500000 1.000000 Tl
0.500000 0.000000 1.000000 Ag
0.500000 0.500000 0.500000 Au
0.000000 0.000000 0.500000 Au
1.000000 0.500000 0.000000 Au
0.259446 0.000000 0.000000 Cl
0.500000 0.000000 0.759446 Cl
0.740554 0.000000 0.000000 Cl
0.500000 0.759446 0.000000 Cl
0.500000 0.240554 1.000000 Cl
0.500000 0.000000 0.240554 Cl
0.259446 0.500000 0.500000 Cl
0.500000 0.500000 0.259446 Cl
0.740554 0.500000 0.500000 Cl
0.500000 0.259446 0.500000 Cl
0.500000 0.740554 0.500000 Cl
0.500000 0.500000 0.740554 Cl
0.759446 0.000000 0.500000 Cl
0.000000 0.000000 0.259446 Cl
0.240554 0.000000 0.500000 Cl
1.000000 0.759446 0.500000 Cl
1.000000 0.240554 0.500000 Cl
0.000000 0.000000 0.740554 Cl
0.759446 0.500000 0.000000 Cl
1.000000 0.500000 0.759446 Cl
0.240554 0.500000 0.000000 Cl
1.000000 0.259446 1.000000 Cl
0.000000 0.740554 0.000000 Cl
1.000000 0.500000 0.240554 Cl
