Cs8 Ag4 Bi4 Br1 Cl23
1.0
10.985882 0.000000 0.000000
-0.000000 10.985882 0.000000
0.000000 0.000000 10.985882
Cs Ag Bi Br Cl
8 4 4 1 23
direct
0.250000 0.250000 0.750000 Cs
0.750000 0.250000 0.750000 Cs
0.250000 0.750000 0.250000 Cs
0.750000 0.750000 0.250000 Cs
0.750000 0.250000 0.250000 Cs
0.250000 0.250000 0.250000 Cs
0.750000 0.750000 0.750000 Cs
0.250000 0.750000 0.750000 Cs
0.500000 0.000000 0.000000 Ag
0.500000 0.500000 0.500000 Ag
0.000000 0.000000 0.500000 Ag
1.000000 0.500000 0.000000 Ag
0.000000 0.000000 0.000000 Bi
1.000000 0.500000 0.500000 Bi
0.500000 0.000000 0.500000 Bi
0.500000 0.500000 0.000000 Bi
0.500000 0.749113 0.000000 Br
0.500000 0.000000 0.749113 Cl
0.500000 0.249113 0.500000 Cl
0.500000 0.000000 0.250887 Cl
0.249113 0.000000 0.000000 Cl
0.750887 0.000000 0.000000 Cl
0.500000 0.250887 0.000000 Cl
0.500000 0.500000 0.249113 Cl
0.500000 0.500000 0.750887 Cl
0.249113 0.500000 0.500000 Cl
0.750887 0.500000 0.500000 Cl
0.500000 0.750887 0.500000 Cl
0.000000 0.000000 0.249113 Cl
1.000000 0.249113 0.000000 Cl
0.000000 0.000000 0.750887 Cl
0.749113 0.000000 0.500000 Cl
0.250887 0.000000 0.500000 Cl
1.000000 0.250887 0.500000 Cl
1.000000 0.500000 0.749113 Cl
1.000000 0.749113 0.500000 Cl
1.000000 0.500000 0.250887 Cl
0.749113 0.500000 0.000000 Cl
0.250887 0.500000 0.000000 Cl
1.000000 0.750887 0.000000 Cl
