Cs8 Sc4 Tl1 Ag3 I24
1.0
12.127778 0.000000 0.000000
-0.000000 12.127778 0.000000
0.000000 0.000000 12.127778
Cs Sc Tl Ag I
8 4 1 3 24
direct
0.750000 0.750000 0.750000 Cs
0.250000 0.250000 0.250000 Cs
0.750000 0.250000 0.250000 Cs
0.250000 0.750000 0.750000 Cs
0.250000 0.750000 0.250000 Cs
0.750000 0.250000 0.750000 Cs
0.250000 0.250000 0.750000 Cs
0.750000 0.750000 0.250000 Cs
0.000000 0.000000 0.000000 Sc
1.000000 0.500000 0.500000 Sc
0.500000 0.000000 0.500000 Sc
0.500000 0.500000 1.000000 Sc
0.000000 0.000000 0.500000 Tl
0.500000 0.000000 1.000000 Ag
0.500000 0.500000 0.500000 Ag
1.000000 0.500000 0.000000 Ag
0.243667 0.000000 1.000000 I
0.500000 0.000000 0.743667 I
0.756333 0.000000 0.000000 I
0.500000 0.743667 0.000000 I
0.500000 0.256333 0.000000 I
0.500000 0.000000 0.256333 I
0.243667 0.500000 0.500000 I
0.500000 0.500000 0.243667 I
0.756333 0.500000 0.500000 I
0.500000 0.243667 0.500000 I
0.500000 0.756333 0.500000 I
0.500000 0.500000 0.756333 I
0.743667 0.000000 0.500000 I
0.000000 0.000000 0.243667 I
0.256333 0.000000 0.500000 I
1.000000 0.743667 0.500000 I
1.000000 0.256333 0.500000 I
0.000000 0.000000 0.756333 I
0.743667 0.500000 0.000000 I
1.000000 0.500000 0.743667 I
0.256333 0.500000 0.000000 I
0.000000 0.243667 1.000000 I
0.000000 0.756333 0.000000 I
1.000000 0.500000 0.256333 I
