Cs8 Tl1 Ag3 As4 Cl24
1.0
10.606340 0.000000 0.000000
-0.000000 10.606340 0.000000
0.000000 0.000000 10.606340
Cs Tl Ag As Cl
8 1 3 4 24
direct
0.250000 0.250000 0.250000 Cs
0.750000 0.750000 0.750000 Cs
0.250000 0.750000 0.750000 Cs
0.750000 0.250000 0.250000 Cs
0.750000 0.250000 0.750000 Cs
0.250000 0.750000 0.250000 Cs
0.750000 0.750000 0.250000 Cs
0.250000 0.250000 0.750000 Cs
0.500000 0.500000 1.000000 Tl
0.000000 0.500000 0.500000 Ag
0.000000 0.000000 0.000000 Ag
0.500000 0.000000 0.500000 Ag
0.500000 0.500000 0.500000 As
0.500000 0.000000 1.000000 As
0.000000 0.500000 1.000000 As
0.000000 0.000000 0.500000 As
0.726076 0.500000 0.500000 Cl
0.000000 0.500000 0.226076 Cl
0.273924 0.500000 0.500000 Cl
0.000000 0.226076 0.500000 Cl
0.000000 0.773924 0.500000 Cl
0.000000 0.500000 0.773924 Cl
0.726076 0.000000 1.000000 Cl
0.000000 0.000000 0.726076 Cl
0.273924 0.000000 1.000000 Cl
0.000000 0.726076 1.000000 Cl
0.000000 0.273924 0.000000 Cl
0.000000 0.000000 0.273924 Cl
0.226076 0.500000 0.000000 Cl
0.500000 0.500000 0.726076 Cl
0.773924 0.500000 1.000000 Cl
0.500000 0.226076 1.000000 Cl
0.500000 0.773924 1.000000 Cl
0.500000 0.500000 0.273924 Cl
0.226076 0.000000 0.500000 Cl
0.500000 0.000000 0.226076 Cl
0.773924 0.000000 0.500000 Cl
0.500000 0.726076 0.500000 Cl
0.500000 0.273924 0.500000 Cl
0.500000 0.000000 0.773924 Cl
