Cs8 In4 Bi4 I22 Br2
1.0
12.673277 0.000000 0.000000
-0.000000 12.673277 0.000000
0.000000 0.000000 12.673277
Cs In Bi I Br
8 4 4 22 2
direct
0.750000 0.750000 0.750000 Cs
0.250000 0.250000 0.250000 Cs
0.750000 0.250000 0.250000 Cs
0.250000 0.750000 0.750000 Cs
0.250000 0.750000 0.250000 Cs
0.750000 0.250000 0.750000 Cs
0.250000 0.250000 0.750000 Cs
0.750000 0.750000 0.250000 Cs
0.500000 0.000000 0.000000 In
0.500000 0.500000 0.500000 In
0.000000 0.000000 0.500000 In
0.000000 0.500000 0.000000 In
0.000000 0.000000 0.000000 Bi
0.000000 0.500000 0.500000 Bi
0.500000 0.000000 0.500000 Bi
0.500000 0.500000 0.000000 Bi
0.241536 0.000000 1.000000 I
0.758464 0.000000 1.000000 I
0.500000 0.741536 0.000000 I
0.500000 0.258464 0.000000 I
0.500000 0.000000 0.258464 I
0.241536 0.500000 0.500000 I
0.500000 0.500000 0.241536 I
0.500000 0.241536 0.500000 I
0.500000 0.758464 0.500000 I
0.500000 0.500000 0.758464 I
0.741536 0.000000 0.500000 I
0.000000 0.000000 0.241536 I
0.258464 0.000000 0.500000 I
0.000000 0.741536 0.500000 I
1.000000 0.258464 0.500000 I
0.000000 0.000000 0.758464 I
0.741536 0.500000 1.000000 I
0.000000 0.500000 0.741536 I
0.258464 0.500000 1.000000 I
1.000000 0.241536 0.000000 I
0.000000 0.758464 0.000000 I
0.000000 0.500000 0.258464 I
0.500000 0.000000 0.741536 Br
0.758464 0.500000 0.500000 Br
