Cs8 Tl4 Sb4 Br22 Cl2
1.0
11.944751 0.000000 0.000000
-0.000000 11.944751 0.000000
0.000000 0.000000 11.944751
Cs Tl Sb Br Cl
8 4 4 22 2
direct
0.750000 0.750000 0.750000 Cs
0.250000 0.250000 0.250000 Cs
0.750000 0.250000 0.250000 Cs
0.250000 0.750000 0.750000 Cs
0.250000 0.750000 0.250000 Cs
0.750000 0.250000 0.750000 Cs
0.250000 0.250000 0.750000 Cs
0.750000 0.750000 0.250000 Cs
0.500000 0.000000 0.000000 Tl
0.500000 0.500000 0.500000 Tl
0.000000 0.000000 0.500000 Tl
1.000000 0.500000 0.000000 Tl
0.000000 0.000000 0.000000 Sb
1.000000 0.500000 0.500000 Sb
0.500000 0.000000 0.500000 Sb
0.500000 0.500000 0.000000 Sb
0.232710 0.000000 0.000000 Br
0.500000 0.000000 0.732710 Br
0.767290 0.000000 0.000000 Br
0.500000 0.732710 0.000000 Br
0.500000 0.267290 0.000000 Br
0.500000 0.000000 0.267290 Br
0.232710 0.500000 0.500000 Br
0.500000 0.500000 0.232710 Br
0.767290 0.500000 0.500000 Br
0.500000 0.232710 0.500000 Br
0.500000 0.767290 0.500000 Br
0.500000 0.500000 0.767290 Br
0.732710 0.000000 0.500000 Br
0.000000 0.000000 0.232710 Br
0.267290 0.000000 0.500000 Br
1.000000 0.732710 0.500000 Br
1.000000 0.267290 0.500000 Br
0.000000 0.000000 0.767290 Br
0.732710 0.500000 0.000000 Br
1.000000 0.500000 0.732710 Br
1.000000 0.767290 0.000000 Br
1.000000 0.500000 0.267290 Br
0.267290 0.500000 0.000000 Cl
0.000000 0.232710 0.000000 Cl
