Cs8 Cu1 Ag3 Sb4 Cl24
1.0
10.759749 0.000000 0.000000
-0.000000 10.759749 0.000000
0.000000 0.000000 10.759749
Cs Cu Ag Sb Cl
8 1 3 4 24
direct
0.250000 0.250000 0.250000 Cs
0.750000 0.750000 0.750000 Cs
0.250000 0.750000 0.750000 Cs
0.750000 0.250000 0.250000 Cs
0.750000 0.250000 0.750000 Cs
0.250000 0.750000 0.250000 Cs
0.750000 0.750000 0.250000 Cs
0.250000 0.250000 0.750000 Cs
0.000000 0.000000 0.500000 Cu
0.500000 0.000000 1.000000 Ag
0.500000 0.500000 0.500000 Ag
1.000000 0.500000 1.000000 Ag
0.000000 0.000000 0.000000 Sb
1.000000 0.500000 0.500000 Sb
0.500000 0.000000 0.500000 Sb
0.500000 0.500000 1.000000 Sb
0.753603 0.000000 0.000000 Cl
0.500000 0.253603 0.000000 Cl
0.246397 0.000000 1.000000 Cl
0.500000 0.000000 0.253603 Cl
0.500000 0.000000 0.746397 Cl
0.500000 0.746397 1.000000 Cl
0.753603 0.500000 0.500000 Cl
0.500000 0.753603 0.500000 Cl
0.246397 0.500000 0.500000 Cl
0.500000 0.500000 0.753603 Cl
0.500000 0.500000 0.246397 Cl
0.500000 0.246397 0.500000 Cl
0.253603 0.000000 0.500000 Cl
1.000000 0.253603 0.500000 Cl
0.746397 0.000000 0.500000 Cl
0.000000 0.000000 0.753603 Cl
0.000000 0.000000 0.246397 Cl
0.000000 0.746397 0.500000 Cl
0.253603 0.500000 0.000000 Cl
0.000000 0.753603 0.000000 Cl
0.746397 0.500000 1.000000 Cl
1.000000 0.500000 0.253603 Cl
1.000000 0.500000 0.746397 Cl
0.000000 0.246397 1.000000 Cl
