Cs8 Ga4 Au4 I12 Br12
1.0
11.377482 0.000000 0.000000
-0.000000 11.377482 0.000000
0.000000 0.000000 11.377482
Cs Ga Au I Br
8 4 4 12 12
direct
0.750000 0.750000 0.750000 Cs
0.250000 0.250000 0.250000 Cs
0.750000 0.250000 0.250000 Cs
0.250000 0.750000 0.750000 Cs
0.250000 0.750000 0.250000 Cs
0.750000 0.250000 0.750000 Cs
0.250000 0.250000 0.750000 Cs
0.750000 0.750000 0.250000 Cs
0.000000 0.000000 0.000000 Ga
1.000000 0.500000 0.500000 Ga
0.500000 0.000000 0.500000 Ga
0.500000 0.500000 0.000000 Ga
0.500000 0.000000 0.000000 Au
0.500000 0.500000 0.500000 Au
0.000000 0.000000 0.500000 Au
1.000000 0.500000 0.000000 Au
0.247785 0.000000 0.000000 I
0.247785 0.500000 0.500000 I
0.752215 0.500000 0.500000 I
0.500000 0.247785 0.500000 I
0.500000 0.500000 0.752215 I
0.252215 0.000000 0.500000 I
1.000000 0.252215 0.500000 I
0.747785 0.500000 0.000000 I
1.000000 0.500000 0.747785 I
0.252215 0.500000 0.000000 I
1.000000 0.752215 0.000000 I
1.000000 0.500000 0.252215 I
0.500000 0.000000 0.747785 Br
0.752215 0.000000 0.000000 Br
0.500000 0.747785 0.000000 Br
0.500000 0.252215 0.000000 Br
0.500000 0.000000 0.252215 Br
0.500000 0.500000 0.247785 Br
0.500000 0.752215 0.500000 Br
0.747785 0.000000 0.500000 Br
0.000000 0.000000 0.247785 Br
1.000000 0.747785 0.500000 Br
0.000000 0.000000 0.752215 Br
1.000000 0.247785 0.000000 Br
