Cs8 Sb4 Au4 Br7 Cl17
1.0
10.972672 0.000000 0.000000
-0.000000 10.972672 0.000000
0.000000 0.000000 10.972672
Cs Sb Au Br Cl
8 4 4 7 17
direct
0.750000 0.750000 0.750000 Cs
0.250000 0.250000 0.250000 Cs
0.750000 0.250000 0.250000 Cs
0.250000 0.750000 0.750000 Cs
0.250000 0.750000 0.250000 Cs
0.750000 0.250000 0.750000 Cs
0.250000 0.250000 0.750000 Cs
0.750000 0.750000 0.250000 Cs
0.000000 0.000000 0.000000 Sb
0.000000 0.500000 0.500000 Sb
0.500000 0.000000 0.500000 Sb
0.500000 0.500000 0.000000 Sb
0.500000 0.000000 0.000000 Au
0.500000 0.500000 0.500000 Au
0.000000 0.000000 0.500000 Au
0.000000 0.500000 0.000000 Au
0.500000 0.750090 0.000000 Br
0.500000 0.250090 0.500000 Br
0.000000 0.000000 0.250090 Br
0.000000 0.750090 0.500000 Br
0.249910 0.500000 1.000000 Br
0.000000 0.250090 0.000000 Br
0.000000 0.749910 1.000000 Br
0.250090 0.000000 1.000000 Cl
0.500000 0.000000 0.750090 Cl
0.749910 0.000000 1.000000 Cl
0.500000 0.249910 0.000000 Cl
0.500000 0.000000 0.249910 Cl
0.250090 0.500000 0.500000 Cl
0.500000 0.500000 0.250090 Cl
0.749910 0.500000 0.500000 Cl
0.500000 0.749910 0.500000 Cl
0.500000 0.500000 0.749910 Cl
0.750090 0.000000 0.500000 Cl
0.249910 0.000000 0.500000 Cl
0.000000 0.249910 0.500000 Cl
0.000000 0.000000 0.749910 Cl
0.750090 0.500000 0.000000 Cl
0.000000 0.500000 0.750090 Cl
0.000000 0.500000 0.249910 Cl
