Cs8 Ga4 Ag1 Au3 Br24
1.0
10.962686 0.000000 0.000000
-0.000000 10.962686 0.000000
0.000000 0.000000 10.962686
Cs Ga Ag Au Br
8 4 1 3 24
direct
0.750000 0.750000 0.750000 Cs
0.250000 0.250000 0.250000 Cs
0.750000 0.250000 0.250000 Cs
0.250000 0.750000 0.750000 Cs
0.250000 0.750000 0.250000 Cs
0.750000 0.250000 0.750000 Cs
0.250000 0.250000 0.750000 Cs
0.750000 0.750000 0.250000 Cs
0.000000 0.000000 0.000000 Ga
1.000000 0.500000 0.500000 Ga
0.500000 0.000000 0.500000 Ga
0.500000 0.500000 0.000000 Ga
0.500000 0.500000 0.500000 Ag
0.500000 0.000000 0.000000 Au
0.000000 0.000000 0.500000 Au
1.000000 0.500000 0.000000 Au
0.237409 0.000000 0.000000 Br
0.500000 0.000000 0.737409 Br
0.762591 0.000000 0.000000 Br
0.500000 0.737409 0.000000 Br
0.500000 0.262591 1.000000 Br
0.500000 0.000000 0.262591 Br
0.237409 0.500000 0.500000 Br
0.500000 0.500000 0.237409 Br
0.762591 0.500000 0.500000 Br
0.500000 0.237409 0.500000 Br
0.500000 0.762591 0.500000 Br
0.500000 0.500000 0.762591 Br
0.737409 0.000000 0.500000 Br
0.000000 0.000000 0.237409 Br
0.262591 0.000000 0.500000 Br
1.000000 0.737409 0.500000 Br
1.000000 0.262591 0.500000 Br
0.000000 0.000000 0.762591 Br
0.737409 0.500000 0.000000 Br
1.000000 0.500000 0.737409 Br
0.262591 0.500000 0.000000 Br
1.000000 0.237409 0.000000 Br
1.000000 0.762591 0.000000 Br
1.000000 0.500000 0.262591 Br
