Cs8 Ga3 Cu4 As1 Cl24
1.0
10.157119 0.000000 0.000000
-0.000000 10.157119 0.000000
0.000000 0.000000 10.157119
Cs Ga Cu As Cl
8 3 4 1 24
direct
0.250000 0.750000 0.250000 Cs
0.750000 0.250000 0.750000 Cs
0.250000 0.250000 0.750000 Cs
0.750000 0.750000 0.250000 Cs
0.750000 0.750000 0.750000 Cs
0.250000 0.250000 0.250000 Cs
0.750000 0.250000 0.250000 Cs
0.250000 0.750000 0.750000 Cs
0.500000 0.000000 0.500000 Ga
0.000000 0.000000 0.000000 Ga
0.000000 0.500000 0.500000 Ga
0.000000 0.000000 0.500000 Cu
0.000000 0.500000 0.000000 Cu
0.500000 0.000000 0.000000 Cu
0.500000 0.500000 0.500000 Cu
0.500000 0.500000 0.000000 As
0.749957 0.000000 0.500000 Cl
0.000000 0.000000 0.249957 Cl
0.250043 0.000000 0.500000 Cl
0.000000 0.749957 0.500000 Cl
0.000000 0.250043 0.500000 Cl
0.000000 0.000000 0.750043 Cl
0.749957 0.500000 1.000000 Cl
0.000000 0.500000 0.749957 Cl
0.250043 0.500000 1.000000 Cl
1.000000 0.249957 0.000000 Cl
1.000000 0.750043 0.000000 Cl
0.000000 0.500000 0.250043 Cl
0.249957 0.000000 0.000000 Cl
0.500000 0.000000 0.749957 Cl
0.750043 0.000000 1.000000 Cl
0.500000 0.749957 0.000000 Cl
0.500000 0.250043 1.000000 Cl
0.500000 0.000000 0.250043 Cl
0.249957 0.500000 0.500000 Cl
0.500000 0.500000 0.249957 Cl
0.750043 0.500000 0.500000 Cl
0.500000 0.249957 0.500000 Cl
0.500000 0.750043 0.500000 Cl
0.500000 0.500000 0.750043 Cl
