Cs8 Sc4 Tl3 In1 I24
1.0
12.567782 0.000000 0.000000
-0.000000 12.567782 0.000000
0.000000 0.000000 12.567782
Cs Sc Tl In I
8 4 3 1 24
direct
0.750000 0.750000 0.750000 Cs
0.250000 0.250000 0.250000 Cs
0.750000 0.250000 0.250000 Cs
0.250000 0.750000 0.750000 Cs
0.250000 0.750000 0.250000 Cs
0.750000 0.250000 0.750000 Cs
0.250000 0.250000 0.750000 Cs
0.750000 0.750000 0.250000 Cs
0.000000 0.000000 0.000000 Sc
0.000000 0.500000 0.500000 Sc
0.500000 0.000000 0.500000 Sc
0.500000 0.500000 0.000000 Sc
0.500000 0.000000 0.000000 Tl
0.500000 0.500000 0.500000 Tl
0.000000 0.500000 0.000000 Tl
0.000000 0.000000 0.500000 In
0.232317 0.000000 1.000000 I
0.500000 0.000000 0.732317 I
0.767683 0.000000 1.000000 I
0.500000 0.732317 0.000000 I
0.500000 0.267683 1.000000 I
0.500000 0.000000 0.267683 I
0.232317 0.500000 0.500000 I
0.500000 0.500000 0.232317 I
0.767683 0.500000 0.500000 I
0.500000 0.232317 0.500000 I
0.500000 0.767683 0.500000 I
0.500000 0.500000 0.767683 I
0.732317 0.000000 0.500000 I
0.000000 0.000000 0.232317 I
0.267683 0.000000 0.500000 I
1.000000 0.732317 0.500000 I
1.000000 0.267683 0.500000 I
0.000000 0.000000 0.767683 I
0.732317 0.500000 1.000000 I
0.000000 0.500000 0.732317 I
0.267683 0.500000 0.000000 I
0.000000 0.232317 1.000000 I
0.000000 0.767683 1.000000 I
0.000000 0.500000 0.267683 I
