Cs8 Ga2 Sb2 Au4 Cl24
1.0
10.622392 0.000000 0.000000
-0.000000 10.622392 0.000000
0.000000 0.000000 10.622392
Cs Ga Sb Au Cl
8 2 2 4 24
direct
0.750000 0.750000 0.750000 Cs
0.250000 0.250000 0.250000 Cs
0.750000 0.250000 0.250000 Cs
0.250000 0.750000 0.750000 Cs
0.250000 0.750000 0.250000 Cs
0.750000 0.250000 0.750000 Cs
0.250000 0.250000 0.750000 Cs
0.750000 0.750000 0.250000 Cs
0.000000 0.000000 0.000000 Ga
0.500000 0.000000 0.500000 Ga
0.000000 0.500000 0.500000 Sb
0.500000 0.500000 1.000000 Sb
0.500000 0.000000 1.000000 Au
0.500000 0.500000 0.500000 Au
0.000000 0.000000 0.500000 Au
0.000000 0.500000 1.000000 Au
0.247258 0.000000 0.000000 Cl
0.500000 0.000000 0.747258 Cl
0.752742 0.000000 0.000000 Cl
0.500000 0.747258 0.000000 Cl
0.500000 0.252742 1.000000 Cl
0.500000 0.000000 0.252742 Cl
0.247258 0.500000 0.500000 Cl
0.500000 0.500000 0.247258 Cl
0.752742 0.500000 0.500000 Cl
0.500000 0.247258 0.500000 Cl
0.500000 0.752742 0.500000 Cl
0.500000 0.500000 0.752742 Cl
0.747258 0.000000 0.500000 Cl
0.000000 0.000000 0.247258 Cl
0.252742 0.000000 0.500000 Cl
1.000000 0.747258 0.500000 Cl
0.000000 0.252742 0.500000 Cl
0.000000 0.000000 0.752742 Cl
0.747258 0.500000 0.000000 Cl
0.000000 0.500000 0.747258 Cl
0.252742 0.500000 0.000000 Cl
0.000000 0.247258 0.000000 Cl
0.000000 0.752742 0.000000 Cl
0.000000 0.500000 0.252742 Cl
