Cs8 Tl1 In3 As4 Br24
1.0
11.519348 0.000000 0.000000
-0.000000 11.519348 0.000000
0.000000 0.000000 11.519348
Cs Tl In As Br
8 1 3 4 24
direct
0.250000 0.750000 0.250000 Cs
0.750000 0.250000 0.750000 Cs
0.250000 0.250000 0.750000 Cs
0.750000 0.750000 0.250000 Cs
0.750000 0.750000 0.750000 Cs
0.250000 0.250000 0.250000 Cs
0.750000 0.250000 0.250000 Cs
0.250000 0.750000 0.750000 Cs
0.500000 0.000000 1.000000 Tl
0.000000 0.000000 0.500000 In
1.000000 0.500000 0.000000 In
0.500000 0.500000 0.500000 In
0.500000 0.000000 0.500000 As
0.500000 0.500000 1.000000 As
0.000000 0.000000 0.000000 As
1.000000 0.500000 0.500000 As
0.729766 0.000000 0.500000 Br
0.000000 0.000000 0.229766 Br
0.270234 0.000000 0.500000 Br
0.000000 0.729766 0.500000 Br
1.000000 0.270234 0.500000 Br
0.000000 0.000000 0.770234 Br
0.729766 0.500000 1.000000 Br
1.000000 0.500000 0.729766 Br
0.270234 0.500000 0.000000 Br
0.000000 0.229766 0.000000 Br
0.000000 0.770234 1.000000 Br
1.000000 0.500000 0.270234 Br
0.229766 0.000000 1.000000 Br
0.500000 0.000000 0.729766 Br
0.770234 0.000000 1.000000 Br
0.500000 0.729766 0.000000 Br
0.500000 0.270234 1.000000 Br
0.500000 0.000000 0.270234 Br
0.229766 0.500000 0.500000 Br
0.500000 0.500000 0.229766 Br
0.770234 0.500000 0.500000 Br
0.500000 0.229766 0.500000 Br
0.500000 0.770234 0.500000 Br
0.500000 0.500000 0.770234 Br
