Cs8 Tl2 Cu2 Sb4 I24
1.0
12.305578 0.000000 0.000000
-0.000000 12.305578 0.000000
0.000000 0.000000 12.305578
Cs Tl Cu Sb I
8 2 2 4 24
direct
0.250000 0.750000 0.250000 Cs
0.750000 0.250000 0.750000 Cs
0.250000 0.250000 0.750000 Cs
0.750000 0.750000 0.250000 Cs
0.750000 0.750000 0.750000 Cs
0.250000 0.250000 0.250000 Cs
0.750000 0.250000 0.250000 Cs
0.250000 0.750000 0.750000 Cs
0.000000 0.500000 0.000000 Tl
0.500000 0.000000 0.000000 Tl
0.000000 0.000000 0.500000 Cu
0.500000 0.500000 0.500000 Cu
0.500000 0.000000 0.500000 Sb
0.500000 0.500000 0.000000 Sb
0.000000 0.000000 0.000000 Sb
0.000000 0.500000 0.500000 Sb
0.738571 0.000000 0.500000 I
0.000000 0.000000 0.238571 I
0.261429 0.000000 0.500000 I
0.000000 0.738571 0.500000 I
1.000000 0.261429 0.500000 I
0.000000 0.000000 0.761429 I
0.738571 0.500000 1.000000 I
0.000000 0.500000 0.738571 I
0.261429 0.500000 0.000000 I
1.000000 0.238571 0.000000 I
1.000000 0.761429 0.000000 I
0.000000 0.500000 0.261429 I
0.238571 0.000000 0.000000 I
0.500000 0.000000 0.738571 I
0.761429 0.000000 1.000000 I
0.500000 0.738571 0.000000 I
0.500000 0.261429 0.000000 I
0.500000 0.000000 0.261429 I
0.238571 0.500000 0.500000 I
0.500000 0.500000 0.238571 I
0.761429 0.500000 0.500000 I
0.500000 0.238571 0.500000 I
0.500000 0.761429 0.500000 I
0.500000 0.500000 0.761429 I
