Cs8 Tl4 Ga1 Bi3 Cl24
1.0
11.552776 0.000000 0.000000
-0.000000 11.552776 0.000000
0.000000 0.000000 11.552776
Cs Tl Ga Bi Cl
8 4 1 3 24
direct
0.250000 0.250000 0.750000 Cs
0.750000 0.750000 0.250000 Cs
0.250000 0.750000 0.250000 Cs
0.750000 0.250000 0.750000 Cs
0.750000 0.250000 0.250000 Cs
0.250000 0.750000 0.750000 Cs
0.750000 0.750000 0.750000 Cs
0.250000 0.250000 0.250000 Cs
1.000000 0.500000 0.000000 Tl
0.000000 0.000000 0.500000 Tl
0.500000 0.500000 0.500000 Tl
0.500000 0.000000 0.000000 Tl
0.000000 0.000000 0.000000 Ga
0.500000 0.500000 0.000000 Bi
0.500000 0.000000 0.500000 Bi
1.000000 0.500000 0.500000 Bi
0.719525 0.500000 0.000000 Cl
1.000000 0.500000 0.719525 Cl
0.280475 0.500000 0.000000 Cl
1.000000 0.219525 0.000000 Cl
1.000000 0.780475 0.000000 Cl
1.000000 0.500000 0.280475 Cl
0.719525 0.000000 0.500000 Cl
0.000000 0.000000 0.219525 Cl
0.280475 0.000000 0.500000 Cl
1.000000 0.719525 0.500000 Cl
1.000000 0.280475 0.500000 Cl
0.000000 0.000000 0.780475 Cl
0.219525 0.500000 0.500000 Cl
0.500000 0.500000 0.219525 Cl
0.780475 0.500000 0.500000 Cl
0.500000 0.219525 0.500000 Cl
0.500000 0.780475 0.500000 Cl
0.500000 0.500000 0.780475 Cl
0.219525 0.000000 0.000000 Cl
0.500000 0.000000 0.719525 Cl
0.780475 0.000000 0.000000 Cl
0.500000 0.719525 0.000000 Cl
0.500000 0.280475 0.000000 Cl
0.500000 0.000000 0.280475 Cl
