Cs8 Tl3 Sb4 Au1 I24
1.0
12.689397 0.000000 0.000000
-0.000000 12.689397 0.000000
0.000000 0.000000 12.689397
Cs Tl Sb Au I
8 3 4 1 24
direct
0.750000 0.750000 0.750000 Cs
0.250000 0.250000 0.250000 Cs
0.750000 0.250000 0.250000 Cs
0.250000 0.750000 0.750000 Cs
0.250000 0.750000 0.250000 Cs
0.750000 0.250000 0.750000 Cs
0.250000 0.250000 0.750000 Cs
0.750000 0.750000 0.250000 Cs
0.500000 0.000000 1.000000 Tl
0.500000 0.500000 0.500000 Tl
0.000000 0.000000 0.500000 Tl
0.000000 0.000000 0.000000 Sb
1.000000 0.500000 0.500000 Sb
0.500000 0.000000 0.500000 Sb
0.500000 0.500000 1.000000 Sb
1.000000 0.500000 0.000000 Au
0.252885 0.000000 1.000000 I
0.500000 0.000000 0.752885 I
0.747115 0.000000 0.000000 I
0.500000 0.752885 0.000000 I
0.500000 0.247115 0.000000 I
0.500000 0.000000 0.247115 I
0.252885 0.500000 0.500000 I
0.500000 0.500000 0.252885 I
0.747115 0.500000 0.500000 I
0.500000 0.252885 0.500000 I
0.500000 0.747115 0.500000 I
0.500000 0.500000 0.747115 I
0.752885 0.000000 0.500000 I
0.000000 0.000000 0.252885 I
0.247115 0.000000 0.500000 I
1.000000 0.752885 0.500000 I
1.000000 0.247115 0.500000 I
0.000000 0.000000 0.747115 I
0.752885 0.500000 0.000000 I
1.000000 0.500000 0.752885 I
0.247115 0.500000 0.000000 I
1.000000 0.252885 0.000000 I
1.000000 0.747115 0.000000 I
1.000000 0.500000 0.247115 I
