Cs8 In4 Sb2 As2 I24
1.0
12.415107 0.000000 0.000000
-0.000000 12.415107 0.000000
0.000000 0.000000 12.415107
Cs In Sb As I
8 4 2 2 24
direct
0.750000 0.750000 0.750000 Cs
0.250000 0.250000 0.250000 Cs
0.750000 0.250000 0.250000 Cs
0.250000 0.750000 0.750000 Cs
0.250000 0.750000 0.250000 Cs
0.750000 0.250000 0.750000 Cs
0.250000 0.250000 0.750000 Cs
0.750000 0.750000 0.250000 Cs
0.500000 0.000000 1.000000 In
0.500000 0.500000 0.500000 In
0.000000 0.000000 0.500000 In
1.000000 0.500000 1.000000 In
0.500000 0.000000 0.500000 Sb
0.500000 0.500000 1.000000 Sb
0.000000 0.000000 0.000000 As
1.000000 0.500000 0.500000 As
0.242467 0.000000 1.000000 I
0.500000 0.000000 0.742467 I
0.757533 0.000000 1.000000 I
0.500000 0.742467 1.000000 I
0.500000 0.257533 1.000000 I
0.500000 0.000000 0.257533 I
0.242467 0.500000 0.500000 I
0.500000 0.500000 0.242467 I
0.757533 0.500000 0.500000 I
0.500000 0.242467 0.500000 I
0.500000 0.757533 0.500000 I
0.500000 0.500000 0.757533 I
0.742467 0.000000 0.500000 I
0.000000 0.000000 0.242467 I
0.257533 0.000000 0.500000 I
0.000000 0.742467 0.500000 I
0.000000 0.257533 0.500000 I
0.000000 0.000000 0.757533 I
0.742467 0.500000 1.000000 I
1.000000 0.500000 0.742467 I
0.257533 0.500000 1.000000 I
0.000000 0.242467 1.000000 I
0.000000 0.757533 1.000000 I
1.000000 0.500000 0.257533 I
