pymatgen generated KPOINTS with grid density = 299 / atom
0
Monkhorst
2 2 2
