Cs8 Tl4 In1 Ag3 I24
1.0
12.167337 0.000000 0.000000
-0.000000 12.167337 0.000000
0.000000 0.000000 12.167337
Cs Tl In Ag I
8 4 1 3 24
direct
0.750000 0.250000 0.250000 Cs
0.250000 0.750000 0.750000 Cs
0.750000 0.750000 0.750000 Cs
0.250000 0.250000 0.250000 Cs
0.250000 0.250000 0.750000 Cs
0.750000 0.750000 0.250000 Cs
0.250000 0.750000 0.250000 Cs
0.750000 0.250000 0.750000 Cs
0.500000 0.500000 0.500000 Tl
0.500000 0.000000 1.000000 Tl
0.000000 0.500000 1.000000 Tl
0.000000 0.000000 0.500000 Tl
0.500000 0.000000 0.500000 In
0.000000 0.500000 0.500000 Ag
0.000000 0.000000 0.000000 Ag
0.500000 0.500000 1.000000 Ag
0.234798 0.500000 0.500000 I
0.500000 0.500000 0.234798 I
0.765202 0.500000 0.500000 I
0.500000 0.234798 0.500000 I
0.500000 0.765202 0.500000 I
0.500000 0.500000 0.765202 I
0.234798 0.000000 1.000000 I
0.500000 0.000000 0.734798 I
0.765202 0.000000 1.000000 I
0.500000 0.734798 1.000000 I
0.500000 0.265202 1.000000 I
0.500000 0.000000 0.265202 I
0.734798 0.500000 1.000000 I
0.000000 0.500000 0.734798 I
0.265202 0.500000 1.000000 I
0.000000 0.234798 1.000000 I
0.000000 0.765202 1.000000 I
0.000000 0.500000 0.265202 I
0.734798 0.000000 0.500000 I
0.000000 0.000000 0.234798 I
0.265202 0.000000 0.500000 I
0.000000 0.734798 0.500000 I
0.000000 0.265202 0.500000 I
0.000000 0.000000 0.765202 I
