Cs8 Sc4 In3 Au1 Cl24
1.0
11.129265 0.000000 0.000000
-0.000000 11.129265 0.000000
0.000000 0.000000 11.129265
Cs Sc In Au Cl
8 4 3 1 24
direct
0.750000 0.750000 0.750000 Cs
0.250000 0.250000 0.250000 Cs
0.750000 0.250000 0.250000 Cs
0.250000 0.750000 0.750000 Cs
0.250000 0.750000 0.250000 Cs
0.750000 0.250000 0.750000 Cs
0.250000 0.250000 0.750000 Cs
0.750000 0.750000 0.250000 Cs
0.000000 0.000000 0.000000 Sc
1.000000 0.500000 0.500000 Sc
0.500000 0.000000 0.500000 Sc
0.500000 0.500000 1.000000 Sc
0.500000 0.000000 1.000000 In
0.500000 0.500000 0.500000 In
1.000000 0.500000 1.000000 In
0.000000 0.000000 0.500000 Au
0.237246 0.000000 1.000000 Cl
0.500000 0.000000 0.737246 Cl
0.762754 0.000000 1.000000 Cl
0.500000 0.737246 0.000000 Cl
0.500000 0.262754 1.000000 Cl
0.500000 0.000000 0.262754 Cl
0.237246 0.500000 0.500000 Cl
0.500000 0.500000 0.237246 Cl
0.762754 0.500000 0.500000 Cl
0.500000 0.237246 0.500000 Cl
0.500000 0.762754 0.500000 Cl
0.500000 0.500000 0.762754 Cl
0.737246 0.000000 0.500000 Cl
0.000000 0.000000 0.237246 Cl
0.262754 0.000000 0.500000 Cl
1.000000 0.737246 0.500000 Cl
0.000000 0.262754 0.500000 Cl
0.000000 0.000000 0.762754 Cl
0.737246 0.500000 0.000000 Cl
1.000000 0.500000 0.737246 Cl
0.262754 0.500000 1.000000 Cl
0.000000 0.237246 1.000000 Cl
0.000000 0.762754 1.000000 Cl
1.000000 0.500000 0.262754 Cl
