Cs8 Tl1 In4 Ga3 Cl24
1.0
10.952972 0.000000 0.000000
-0.000000 10.952972 0.000000
0.000000 0.000000 10.952972
Cs Tl In Ga Cl
8 1 4 3 24
direct
0.250000 0.250000 0.250000 Cs
0.750000 0.750000 0.750000 Cs
0.250000 0.750000 0.750000 Cs
0.750000 0.250000 0.250000 Cs
0.750000 0.250000 0.750000 Cs
0.250000 0.750000 0.250000 Cs
0.750000 0.750000 0.250000 Cs
0.250000 0.250000 0.750000 Cs
0.000000 0.000000 0.000000 Tl
0.500000 0.500000 0.500000 In
0.500000 0.000000 0.000000 In
0.000000 0.500000 0.000000 In
0.000000 0.000000 0.500000 In
0.000000 0.500000 0.500000 Ga
0.500000 0.500000 0.000000 Ga
0.500000 0.000000 0.500000 Ga
0.726978 0.500000 0.500000 Cl
0.000000 0.500000 0.226978 Cl
0.273022 0.500000 0.500000 Cl
0.000000 0.226978 0.500000 Cl
1.000000 0.773022 0.500000 Cl
0.000000 0.500000 0.773022 Cl
0.726978 0.000000 0.000000 Cl
0.000000 0.000000 0.726978 Cl
0.273022 0.000000 0.000000 Cl
1.000000 0.726978 0.000000 Cl
1.000000 0.273022 0.000000 Cl
0.000000 0.000000 0.273022 Cl
0.226978 0.500000 0.000000 Cl
0.500000 0.500000 0.726978 Cl
0.773022 0.500000 0.000000 Cl
0.500000 0.226978 0.000000 Cl
0.500000 0.773022 0.000000 Cl
0.500000 0.500000 0.273022 Cl
0.226978 0.000000 0.500000 Cl
0.500000 0.000000 0.226978 Cl
0.773022 0.000000 0.500000 Cl
0.500000 0.726978 0.500000 Cl
0.500000 0.273022 0.500000 Cl
0.500000 0.000000 0.773022 Cl
