Cs8 Tl4 Cu1 Ag3 Cl24
1.0
10.759593 0.000000 0.000000
-0.000000 10.759593 0.000000
0.000000 0.000000 10.759593
Cs Tl Cu Ag Cl
8 4 1 3 24
direct
0.750000 0.750000 0.750000 Cs
0.250000 0.250000 0.250000 Cs
0.750000 0.250000 0.250000 Cs
0.250000 0.750000 0.750000 Cs
0.250000 0.750000 0.250000 Cs
0.750000 0.250000 0.750000 Cs
0.250000 0.250000 0.750000 Cs
0.750000 0.750000 0.250000 Cs
0.000000 0.000000 0.000000 Tl
0.000000 0.500000 0.500000 Tl
0.500000 0.000000 0.500000 Tl
0.500000 0.500000 1.000000 Tl
0.500000 0.500000 0.500000 Cu
0.500000 0.000000 1.000000 Ag
0.000000 0.000000 0.500000 Ag
0.000000 0.500000 1.000000 Ag
0.263455 0.000000 1.000000 Cl
0.500000 0.000000 0.763455 Cl
0.736545 0.000000 1.000000 Cl
0.500000 0.763455 0.000000 Cl
0.500000 0.236545 0.000000 Cl
0.500000 0.000000 0.236545 Cl
0.263455 0.500000 0.500000 Cl
0.500000 0.500000 0.263455 Cl
0.736545 0.500000 0.500000 Cl
0.500000 0.263455 0.500000 Cl
0.500000 0.736545 0.500000 Cl
0.500000 0.500000 0.736545 Cl
0.763455 0.000000 0.500000 Cl
0.000000 0.000000 0.263455 Cl
0.236545 0.000000 0.500000 Cl
0.000000 0.763455 0.500000 Cl
1.000000 0.236545 0.500000 Cl
0.000000 0.000000 0.736545 Cl
0.763455 0.500000 1.000000 Cl
0.000000 0.500000 0.763455 Cl
0.236545 0.500000 1.000000 Cl
0.000000 0.263455 1.000000 Cl
0.000000 0.736545 1.000000 Cl
0.000000 0.500000 0.236545 Cl
