Cs8 Tl2 In2 As4 I24
1.0
12.333090 0.000000 0.000000
-0.000000 12.333090 0.000000
0.000000 0.000000 12.333090
Cs Tl In As I
8 2 2 4 24
direct
0.250000 0.250000 0.250000 Cs
0.750000 0.750000 0.750000 Cs
0.250000 0.750000 0.750000 Cs
0.750000 0.250000 0.250000 Cs
0.750000 0.250000 0.750000 Cs
0.250000 0.750000 0.250000 Cs
0.750000 0.750000 0.250000 Cs
0.250000 0.250000 0.750000 Cs
0.500000 0.500000 1.000000 Tl
0.500000 0.000000 0.500000 Tl
1.000000 0.500000 0.500000 In
0.000000 0.000000 0.000000 In
0.500000 0.500000 0.500000 As
0.500000 0.000000 1.000000 As
1.000000 0.500000 1.000000 As
0.000000 0.000000 0.500000 As
0.737594 0.500000 0.500000 I
1.000000 0.500000 0.237594 I
0.262406 0.500000 0.500000 I
0.000000 0.237594 0.500000 I
0.000000 0.762406 0.500000 I
1.000000 0.500000 0.762406 I
0.737594 0.000000 1.000000 I
0.000000 0.000000 0.737594 I
0.262406 0.000000 1.000000 I
0.000000 0.737594 0.000000 I
1.000000 0.262406 0.000000 I
0.000000 0.000000 0.262406 I
0.237594 0.500000 0.000000 I
0.500000 0.500000 0.737594 I
0.762406 0.500000 0.000000 I
0.500000 0.237594 1.000000 I
0.500000 0.762406 0.000000 I
0.500000 0.500000 0.262406 I
0.237594 0.000000 0.500000 I
0.500000 0.000000 0.237594 I
0.762406 0.000000 0.500000 I
0.500000 0.737594 0.500000 I
0.500000 0.262406 0.500000 I
0.500000 0.000000 0.762406 I
