Cs8 Tl2 Bi2 Au4 I24
1.0
12.168003 0.000000 0.000000
-0.000000 12.168003 0.000000
0.000000 0.000000 12.168003
Cs Tl Bi Au I
8 2 2 4 24
direct
0.750000 0.750000 0.750000 Cs
0.250000 0.250000 0.250000 Cs
0.750000 0.250000 0.250000 Cs
0.250000 0.750000 0.750000 Cs
0.250000 0.750000 0.250000 Cs
0.750000 0.250000 0.750000 Cs
0.250000 0.250000 0.750000 Cs
0.750000 0.750000 0.250000 Cs
1.000000 0.500000 0.500000 Tl
0.500000 0.000000 0.500000 Tl
0.000000 0.000000 0.000000 Bi
0.500000 0.500000 1.000000 Bi
0.500000 0.000000 1.000000 Au
0.500000 0.500000 0.500000 Au
0.000000 0.000000 0.500000 Au
1.000000 0.500000 1.000000 Au
0.255172 0.000000 1.000000 I
0.500000 0.000000 0.755172 I
0.744828 0.000000 1.000000 I
0.500000 0.755172 0.000000 I
0.500000 0.244828 1.000000 I
0.500000 0.000000 0.244828 I
0.255172 0.500000 0.500000 I
0.500000 0.500000 0.255172 I
0.744828 0.500000 0.500000 I
0.500000 0.255172 0.500000 I
0.500000 0.744828 0.500000 I
0.500000 0.500000 0.744828 I
0.755172 0.000000 0.500000 I
0.000000 0.000000 0.255172 I
0.244828 0.000000 0.500000 I
1.000000 0.755172 0.500000 I
1.000000 0.244828 0.500000 I
0.000000 0.000000 0.744828 I
0.755172 0.500000 0.000000 I
1.000000 0.500000 0.755172 I
0.244828 0.500000 0.000000 I
0.000000 0.255172 1.000000 I
0.000000 0.744828 1.000000 I
1.000000 0.500000 0.244828 I
