Cs8 Tl2 Ga4 Au2 Br24
1.0
11.260890 0.000000 0.000000
-0.000000 11.260890 0.000000
0.000000 0.000000 11.260890
Cs Tl Ga Au Br
8 2 4 2 24
direct
0.750000 0.750000 0.750000 Cs
0.250000 0.250000 0.250000 Cs
0.750000 0.250000 0.250000 Cs
0.250000 0.750000 0.750000 Cs
0.250000 0.750000 0.250000 Cs
0.750000 0.250000 0.750000 Cs
0.250000 0.250000 0.750000 Cs
0.750000 0.750000 0.250000 Cs
0.500000 0.500000 0.500000 Tl
0.000000 0.500000 0.000000 Tl
0.000000 0.000000 0.000000 Ga
0.000000 0.500000 0.500000 Ga
0.500000 0.000000 0.500000 Ga
0.500000 0.500000 0.000000 Ga
0.500000 0.000000 0.000000 Au
0.000000 0.000000 0.500000 Au
0.241756 0.000000 1.000000 Br
0.500000 0.000000 0.741756 Br
0.758244 0.000000 0.000000 Br
0.500000 0.741756 0.000000 Br
0.500000 0.258244 0.000000 Br
0.500000 0.000000 0.258244 Br
0.241756 0.500000 0.500000 Br
0.500000 0.500000 0.241756 Br
0.758244 0.500000 0.500000 Br
0.500000 0.241756 0.500000 Br
0.500000 0.758244 0.500000 Br
0.500000 0.500000 0.758244 Br
0.741756 0.000000 0.500000 Br
0.000000 0.000000 0.241756 Br
0.258244 0.000000 0.500000 Br
1.000000 0.741756 0.500000 Br
1.000000 0.258244 0.500000 Br
0.000000 0.000000 0.758244 Br
0.741756 0.500000 1.000000 Br
0.000000 0.500000 0.741756 Br
0.258244 0.500000 0.000000 Br
0.000000 0.241756 0.000000 Br
1.000000 0.758244 0.000000 Br
0.000000 0.500000 0.258244 Br
