Cs8 Tl2 Ga4 Ag2 Br24
1.0
11.273364 0.000000 0.000000
-0.000000 11.273364 0.000000
0.000000 0.000000 11.273364
Cs Tl Ga Ag Br
8 2 4 2 24
direct
0.750000 0.750000 0.750000 Cs
0.250000 0.250000 0.250000 Cs
0.750000 0.250000 0.250000 Cs
0.250000 0.750000 0.750000 Cs
0.250000 0.750000 0.250000 Cs
0.750000 0.250000 0.750000 Cs
0.250000 0.250000 0.750000 Cs
0.750000 0.750000 0.250000 Cs
0.000000 0.000000 0.500000 Tl
1.000000 0.500000 1.000000 Tl
0.000000 0.000000 0.000000 Ga
1.000000 0.500000 0.500000 Ga
0.500000 0.000000 0.500000 Ga
0.500000 0.500000 1.000000 Ga
0.500000 0.000000 1.000000 Ag
0.500000 0.500000 0.500000 Ag
0.237409 0.000000 1.000000 Br
0.500000 0.000000 0.737409 Br
0.762591 0.000000 1.000000 Br
0.500000 0.737409 0.000000 Br
0.500000 0.262591 1.000000 Br
0.500000 0.000000 0.262591 Br
0.237409 0.500000 0.500000 Br
0.500000 0.500000 0.237409 Br
0.762591 0.500000 0.500000 Br
0.500000 0.237409 0.500000 Br
0.500000 0.762591 0.500000 Br
0.500000 0.500000 0.762591 Br
0.737409 0.000000 0.500000 Br
0.000000 0.000000 0.237409 Br
0.262591 0.000000 0.500000 Br
1.000000 0.737409 0.500000 Br
1.000000 0.262591 0.500000 Br
0.000000 0.000000 0.762591 Br
0.737409 0.500000 1.000000 Br
1.000000 0.500000 0.737409 Br
0.262591 0.500000 0.000000 Br
0.000000 0.237409 1.000000 Br
0.000000 0.762591 1.000000 Br
1.000000 0.500000 0.262591 Br
