Cs8 Ga4 Ag2 Au2 I24
1.0
11.779879 0.000000 0.000000
-0.000000 11.779879 0.000000
0.000000 0.000000 11.779879
Cs Ga Ag Au I
8 4 2 2 24
direct
0.750000 0.750000 0.750000 Cs
0.250000 0.250000 0.250000 Cs
0.750000 0.250000 0.250000 Cs
0.250000 0.750000 0.750000 Cs
0.250000 0.750000 0.250000 Cs
0.750000 0.250000 0.750000 Cs
0.250000 0.250000 0.750000 Cs
0.750000 0.750000 0.250000 Cs
0.000000 0.000000 0.000000 Ga
0.000000 0.500000 0.500000 Ga
0.500000 0.000000 0.500000 Ga
0.500000 0.500000 0.000000 Ga
0.500000 0.000000 0.000000 Ag
0.000000 0.000000 0.500000 Ag
0.500000 0.500000 0.500000 Au
0.000000 0.500000 0.000000 Au
0.247785 0.000000 1.000000 I
0.500000 0.000000 0.747785 I
0.752215 0.000000 0.000000 I
0.500000 0.747785 0.000000 I
0.500000 0.252215 0.000000 I
0.500000 0.000000 0.252215 I
0.247785 0.500000 0.500000 I
0.500000 0.500000 0.247785 I
0.752215 0.500000 0.500000 I
0.500000 0.247785 0.500000 I
0.500000 0.752215 0.500000 I
0.500000 0.500000 0.752215 I
0.747785 0.000000 0.500000 I
0.000000 0.000000 0.247785 I
0.252215 0.000000 0.500000 I
0.000000 0.747785 0.500000 I
0.000000 0.252215 0.500000 I
0.000000 0.000000 0.752215 I
0.747785 0.500000 0.000000 I
0.000000 0.500000 0.747785 I
0.252215 0.500000 0.000000 I
1.000000 0.247785 0.000000 I
1.000000 0.752215 0.000000 I
0.000000 0.500000 0.252215 I
