Cs8 Tl3 Ga1 Ag4 I24
1.0
12.126761 0.000000 0.000000
-0.000000 12.126761 0.000000
0.000000 0.000000 12.126761
Cs Tl Ga Ag I
8 3 1 4 24
direct
0.750000 0.750000 0.750000 Cs
0.250000 0.250000 0.250000 Cs
0.750000 0.250000 0.250000 Cs
0.250000 0.750000 0.750000 Cs
0.250000 0.750000 0.250000 Cs
0.750000 0.250000 0.750000 Cs
0.250000 0.250000 0.750000 Cs
0.750000 0.750000 0.250000 Cs
0.000000 0.000000 0.000000 Tl
1.000000 0.500000 0.500000 Tl
0.500000 0.000000 0.500000 Tl
0.500000 0.500000 1.000000 Ga
0.500000 0.000000 1.000000 Ag
0.500000 0.500000 0.500000 Ag
0.000000 0.000000 0.500000 Ag
1.000000 0.500000 1.000000 Ag
0.244350 0.000000 1.000000 I
0.500000 0.000000 0.744350 I
0.755650 0.000000 1.000000 I
0.500000 0.744351 1.000000 I
0.500000 0.255650 1.000000 I
0.500000 0.000000 0.255650 I
0.244350 0.500000 0.500000 I
0.500000 0.500000 0.244350 I
0.755650 0.500000 0.500000 I
0.500000 0.244350 0.500000 I
0.500000 0.755650 0.500000 I
0.500000 0.500000 0.755650 I
0.744351 0.000000 0.500000 I
0.000000 0.000000 0.244350 I
0.255650 0.000000 0.500000 I
0.000000 0.744351 0.500000 I
1.000000 0.255650 0.500000 I
0.000000 0.000000 0.755650 I
0.744351 0.500000 1.000000 I
1.000000 0.500000 0.744350 I
0.255650 0.500000 1.000000 I
1.000000 0.244350 1.000000 I
0.000000 0.755650 1.000000 I
1.000000 0.500000 0.255650 I
