Cs8 Sc4 Tl1 Ag3 Br24
1.0
11.332836 0.000000 0.000000
-0.000000 11.332836 0.000000
0.000000 0.000000 11.332836
Cs Sc Tl Ag Br
8 4 1 3 24
direct
0.750000 0.750000 0.750000 Cs
0.250000 0.250000 0.250000 Cs
0.750000 0.250000 0.250000 Cs
0.250000 0.750000 0.750000 Cs
0.250000 0.750000 0.250000 Cs
0.750000 0.250000 0.750000 Cs
0.250000 0.250000 0.750000 Cs
0.750000 0.750000 0.250000 Cs
0.000000 0.000000 0.000000 Sc
1.000000 0.500000 0.500000 Sc
0.500000 0.000000 0.500000 Sc
0.500000 0.500000 0.000000 Sc
0.500000 0.000000 0.000000 Tl
0.500000 0.500000 0.500000 Ag
0.000000 0.000000 0.500000 Ag
1.000000 0.500000 0.000000 Ag
0.239946 0.000000 0.000000 Br
0.500000 0.000000 0.739946 Br
0.760054 0.000000 0.000000 Br
0.500000 0.739946 0.000000 Br
0.500000 0.260054 0.000000 Br
0.500000 0.000000 0.260054 Br
0.239946 0.500000 0.500000 Br
0.500000 0.500000 0.239946 Br
0.760054 0.500000 0.500000 Br
0.500000 0.239946 0.500000 Br
0.500000 0.760054 0.500000 Br
0.500000 0.500000 0.760054 Br
0.739946 0.000000 0.500000 Br
0.000000 0.000000 0.239946 Br
0.260054 0.000000 0.500000 Br
1.000000 0.739946 0.500000 Br
1.000000 0.260054 0.500000 Br
0.000000 0.000000 0.760054 Br
0.739946 0.500000 0.000000 Br
1.000000 0.500000 0.739946 Br
0.260054 0.500000 0.000000 Br
0.000000 0.239946 0.000000 Br
1.000000 0.760054 0.000000 Br
1.000000 0.500000 0.260054 Br
