Cs8 Tl3 Ga4 Ag1 I24
1.0
12.310188 0.000000 0.000000
-0.000000 12.310188 0.000000
0.000000 0.000000 12.310188
Cs Tl Ga Ag I
8 3 4 1 24
direct
0.750000 0.750000 0.750000 Cs
0.250000 0.250000 0.250000 Cs
0.750000 0.250000 0.250000 Cs
0.250000 0.750000 0.750000 Cs
0.250000 0.750000 0.250000 Cs
0.750000 0.250000 0.750000 Cs
0.250000 0.250000 0.750000 Cs
0.750000 0.750000 0.250000 Cs
0.500000 0.500000 0.500000 Tl
0.000000 0.000000 0.500000 Tl
1.000000 0.500000 0.000000 Tl
0.000000 0.000000 0.000000 Ga
1.000000 0.500000 0.500000 Ga
0.500000 0.000000 0.500000 Ga
0.500000 0.500000 0.000000 Ga
0.500000 0.000000 0.000000 Ag
0.244350 0.000000 0.000000 I
0.500000 0.000000 0.744350 I
0.755650 0.000000 0.000000 I
0.500000 0.744350 0.000000 I
0.500000 0.255650 0.000000 I
0.500000 0.000000 0.255650 I
0.244350 0.500000 0.500000 I
0.500000 0.500000 0.244350 I
0.755650 0.500000 0.500000 I
0.500000 0.244350 0.500000 I
0.500000 0.755650 0.500000 I
0.500000 0.500000 0.755650 I
0.744350 0.000000 0.500000 I
0.000000 0.000000 0.244350 I
0.255650 0.000000 0.500000 I
1.000000 0.744350 0.500000 I
1.000000 0.255650 0.500000 I
0.000000 0.000000 0.755650 I
0.744350 0.500000 0.000000 I
1.000000 0.500000 0.744350 I
0.255650 0.500000 0.000000 I
0.000000 0.244350 0.000000 I
1.000000 0.755650 0.000000 I
1.000000 0.500000 0.255650 I
