Cs8 In3 As4 Au1 Br24
1.0
11.490609 0.000000 0.000000
-0.000000 11.490609 0.000000
0.000000 0.000000 11.490609
Cs In As Au Br
8 3 4 1 24
direct
0.750000 0.750000 0.750000 Cs
0.250000 0.250000 0.250000 Cs
0.750000 0.250000 0.250000 Cs
0.250000 0.750000 0.750000 Cs
0.250000 0.750000 0.250000 Cs
0.750000 0.250000 0.750000 Cs
0.250000 0.250000 0.750000 Cs
0.750000 0.750000 0.250000 Cs
0.500000 0.000000 1.000000 In
0.000000 0.000000 0.500000 In
0.000000 0.500000 1.000000 In
0.000000 0.000000 0.000000 As
0.000000 0.500000 0.500000 As
0.500000 0.000000 0.500000 As
0.500000 0.500000 1.000000 As
0.500000 0.500000 0.500000 Au
0.244396 0.000000 1.000000 Br
0.500000 0.000000 0.744396 Br
0.755604 0.000000 1.000000 Br
0.500000 0.744396 1.000000 Br
0.500000 0.255604 1.000000 Br
0.500000 0.000000 0.255604 Br
0.244396 0.500000 0.500000 Br
0.500000 0.500000 0.244396 Br
0.755604 0.500000 0.500000 Br
0.500000 0.244396 0.500000 Br
0.500000 0.755604 0.500000 Br
0.500000 0.500000 0.755604 Br
0.744396 0.000000 0.500000 Br
0.000000 0.000000 0.244396 Br
0.255604 0.000000 0.500000 Br
0.000000 0.744396 0.500000 Br
0.000000 0.255604 0.500000 Br
0.000000 0.000000 0.755604 Br
0.744396 0.500000 1.000000 Br
0.000000 0.500000 0.744396 Br
0.255604 0.500000 1.000000 Br
0.000000 0.244396 1.000000 Br
0.000000 0.755604 1.000000 Br
0.000000 0.500000 0.255604 Br
