Cs8 In4 Cu4 Br1 Cl23
1.0
10.376764 0.000000 0.000000
-0.000000 10.376764 0.000000
0.000000 0.000000 10.376764
Cs In Cu Br Cl
8 4 4 1 23
direct
0.750000 0.750000 0.750000 Cs
0.250000 0.250000 0.250000 Cs
0.750000 0.250000 0.250000 Cs
0.250000 0.750000 0.750000 Cs
0.250000 0.750000 0.250000 Cs
0.750000 0.250000 0.750000 Cs
0.250000 0.250000 0.750000 Cs
0.750000 0.750000 0.250000 Cs
0.000000 0.000000 0.000000 In
0.000000 0.500000 0.500000 In
0.500000 0.000000 0.500000 In
0.500000 0.500000 0.000000 In
0.500000 0.000000 0.000000 Cu
0.500000 0.500000 0.500000 Cu
0.000000 0.000000 0.500000 Cu
0.000000 0.500000 0.000000 Cu
0.748263 0.500000 0.500000 Br
0.251737 0.000000 1.000000 Cl
0.500000 0.000000 0.751737 Cl
0.748263 0.000000 0.000000 Cl
0.500000 0.751737 0.000000 Cl
0.500000 0.248263 0.000000 Cl
0.500000 0.000000 0.248263 Cl
0.251737 0.500000 0.500000 Cl
0.500000 0.500000 0.251737 Cl
0.500000 0.251737 0.500000 Cl
0.500000 0.748263 0.500000 Cl
0.500000 0.500000 0.748263 Cl
0.751737 0.000000 0.500000 Cl
0.000000 0.000000 0.251737 Cl
0.248263 0.000000 0.500000 Cl
1.000000 0.751737 0.500000 Cl
1.000000 0.248263 0.500000 Cl
0.000000 0.000000 0.748263 Cl
0.751737 0.500000 0.000000 Cl
0.000000 0.500000 0.751737 Cl
0.248263 0.500000 1.000000 Cl
1.000000 0.251737 0.000000 Cl
0.000000 0.748263 0.000000 Cl
0.000000 0.500000 0.248263 Cl
