Cs8 In2 Sb4 Au2 I24
1.0
12.325236 0.000000 0.000000
-0.000000 12.325236 0.000000
0.000000 0.000000 12.325236
Cs In Sb Au I
8 2 4 2 24
direct
0.750000 0.750000 0.750000 Cs
0.250000 0.250000 0.250000 Cs
0.750000 0.250000 0.250000 Cs
0.250000 0.750000 0.750000 Cs
0.250000 0.750000 0.250000 Cs
0.750000 0.250000 0.750000 Cs
0.250000 0.250000 0.750000 Cs
0.750000 0.750000 0.250000 Cs
0.500000 0.000000 0.000000 In
1.000000 0.500000 0.000000 In
0.000000 0.000000 0.000000 Sb
1.000000 0.500000 0.500000 Sb
0.500000 0.000000 0.500000 Sb
0.500000 0.500000 0.000000 Sb
0.500000 0.500000 0.500000 Au
0.000000 0.000000 0.500000 Au
0.252885 0.000000 0.000000 I
0.500000 0.000000 0.752885 I
0.747115 0.000000 1.000000 I
0.500000 0.752885 0.000000 I
0.500000 0.247115 1.000000 I
0.500000 0.000000 0.247115 I
0.252885 0.500000 0.500000 I
0.500000 0.500000 0.252885 I
0.747115 0.500000 0.500000 I
0.500000 0.252885 0.500000 I
0.500000 0.747115 0.500000 I
0.500000 0.500000 0.747115 I
0.752885 0.000000 0.500000 I
0.000000 0.000000 0.252885 I
0.247115 0.000000 0.500000 I
1.000000 0.752885 0.500000 I
0.000000 0.247115 0.500000 I
0.000000 0.000000 0.747115 I
0.752885 0.500000 0.000000 I
1.000000 0.500000 0.752885 I
0.247115 0.500000 0.000000 I
0.000000 0.252885 1.000000 I
1.000000 0.747115 0.000000 I
1.000000 0.500000 0.247115 I
