Cs8 Tl3 Cu1 As4 Cl24
1.0
10.917145 0.000000 0.000000
-0.000000 10.917145 0.000000
0.000000 0.000000 10.917145
Cs Tl Cu As Cl
8 3 1 4 24
direct
0.750000 0.750000 0.750000 Cs
0.250000 0.250000 0.250000 Cs
0.750000 0.250000 0.250000 Cs
0.250000 0.750000 0.750000 Cs
0.250000 0.750000 0.250000 Cs
0.750000 0.250000 0.750000 Cs
0.250000 0.250000 0.750000 Cs
0.750000 0.750000 0.250000 Cs
0.500000 0.500000 0.500000 Tl
0.000000 0.000000 0.500000 Tl
1.000000 0.500000 0.000000 Tl
0.500000 0.000000 0.000000 Cu
0.000000 0.000000 0.000000 As
1.000000 0.500000 0.500000 As
0.500000 0.000000 0.500000 As
0.500000 0.500000 0.000000 As
0.226076 0.000000 0.000000 Cl
0.500000 0.000000 0.726076 Cl
0.773924 0.000000 1.000000 Cl
0.500000 0.726076 0.000000 Cl
0.500000 0.273924 0.000000 Cl
0.500000 0.000000 0.273924 Cl
0.226076 0.500000 0.500000 Cl
0.500000 0.500000 0.226076 Cl
0.773924 0.500000 0.500000 Cl
0.500000 0.226076 0.500000 Cl
0.500000 0.773924 0.500000 Cl
0.500000 0.500000 0.773924 Cl
0.726076 0.000000 0.500000 Cl
0.000000 0.000000 0.226076 Cl
0.273924 0.000000 0.500000 Cl
1.000000 0.726076 0.500000 Cl
1.000000 0.273924 0.500000 Cl
0.000000 0.000000 0.773924 Cl
0.726076 0.500000 0.000000 Cl
1.000000 0.500000 0.726076 Cl
0.273924 0.500000 0.000000 Cl
1.000000 0.226076 0.000000 Cl
1.000000 0.773924 0.000000 Cl
1.000000 0.500000 0.273924 Cl
