Cs8 Cu4 Sb4 Br23 Cl1
1.0
11.050848 0.000000 0.000000
-0.000000 11.050848 0.000000
0.000000 0.000000 11.050848
Cs Cu Sb Br Cl
8 4 4 23 1
direct
0.250000 0.750000 0.250000 Cs
0.750000 0.750000 0.250000 Cs
0.250000 0.250000 0.750000 Cs
0.750000 0.250000 0.750000 Cs
0.750000 0.750000 0.750000 Cs
0.250000 0.750000 0.750000 Cs
0.750000 0.250000 0.250000 Cs
0.250000 0.250000 0.250000 Cs
1.000000 0.500000 0.500000 Cu
0.000000 0.000000 0.000000 Cu
0.500000 0.500000 1.000000 Cu
0.500000 0.000000 0.500000 Cu
0.500000 0.500000 0.500000 Sb
0.500000 0.000000 1.000000 Sb
1.000000 0.500000 1.000000 Sb
0.000000 0.000000 0.500000 Sb
1.000000 0.500000 0.742702 Br
0.757298 0.500000 0.500000 Br
1.000000 0.500000 0.257298 Br
1.000000 0.757298 0.000000 Br
1.000000 0.742702 0.500000 Br
0.242702 0.500000 0.500000 Br
0.000000 0.000000 0.242702 Br
0.757298 0.000000 1.000000 Br
0.000000 0.000000 0.757298 Br
1.000000 0.257298 0.500000 Br
0.000000 0.242702 1.000000 Br
0.242702 0.000000 1.000000 Br
0.500000 0.500000 0.242702 Br
0.257298 0.500000 1.000000 Br
0.500000 0.500000 0.757298 Br
0.500000 0.742702 0.000000 Br
0.742702 0.500000 0.000000 Br
0.500000 0.000000 0.742702 Br
0.257298 0.000000 0.500000 Br
0.500000 0.000000 0.257298 Br
0.500000 0.257298 1.000000 Br
0.500000 0.242702 0.500000 Br
0.742702 0.000000 0.500000 Br
0.500000 0.757298 0.500000 Cl
