Cs8 Tl3 In4 Ag1 Cl24
1.0
11.228903 0.000000 0.000000
-0.000000 11.228903 0.000000
0.000000 0.000000 11.228903
Cs Tl In Ag Cl
8 3 4 1 24
direct
0.750000 0.750000 0.750000 Cs
0.250000 0.250000 0.250000 Cs
0.750000 0.250000 0.250000 Cs
0.250000 0.750000 0.750000 Cs
0.250000 0.750000 0.250000 Cs
0.750000 0.250000 0.750000 Cs
0.250000 0.250000 0.750000 Cs
0.750000 0.750000 0.250000 Cs
0.500000 0.000000 1.000000 Tl
0.500000 0.500000 0.500000 Tl
0.000000 0.000000 0.500000 Tl
0.000000 0.000000 0.000000 In
1.000000 0.500000 0.500000 In
0.500000 0.000000 0.500000 In
0.500000 0.500000 1.000000 In
1.000000 0.500000 1.000000 Ag
0.240636 0.000000 1.000000 Cl
0.500000 0.000000 0.740636 Cl
0.759364 0.000000 1.000000 Cl
0.500000 0.740636 1.000000 Cl
0.500000 0.259364 1.000000 Cl
0.500000 0.000000 0.259364 Cl
0.240636 0.500000 0.500000 Cl
0.500000 0.500000 0.240636 Cl
0.759364 0.500000 0.500000 Cl
0.500000 0.240636 0.500000 Cl
0.500000 0.759364 0.500000 Cl
0.500000 0.500000 0.759364 Cl
0.740636 0.000000 0.500000 Cl
0.000000 0.000000 0.240636 Cl
0.259364 0.000000 0.500000 Cl
1.000000 0.740636 0.500000 Cl
0.000000 0.259364 0.500000 Cl
0.000000 0.000000 0.759364 Cl
0.740636 0.500000 1.000000 Cl
1.000000 0.500000 0.740636 Cl
0.259364 0.500000 1.000000 Cl
0.000000 0.240636 1.000000 Cl
1.000000 0.759364 0.000000 Cl
1.000000 0.500000 0.259364 Cl
