Cs8 Tl8 Br17 Cl7
1.0
11.729910 0.000000 0.000000
-0.000000 11.729910 0.000000
0.000000 0.000000 11.729910
Cs Tl Br Cl
8 8 17 7
direct
0.750000 0.750000 0.750000 Cs
0.250000 0.250000 0.250000 Cs
0.750000 0.250000 0.250000 Cs
0.250000 0.750000 0.750000 Cs
0.250000 0.750000 0.250000 Cs
0.750000 0.250000 0.750000 Cs
0.250000 0.250000 0.750000 Cs
0.750000 0.750000 0.250000 Cs
0.500000 0.000000 0.000000 Tl
0.000000 0.000000 0.000000 Tl
0.500000 0.500000 0.500000 Tl
0.000000 0.500000 0.500000 Tl
0.000000 0.000000 0.500000 Tl
0.500000 0.000000 0.500000 Tl
0.000000 0.500000 0.000000 Tl
0.500000 0.500000 0.000000 Tl
0.767264 0.000000 1.000000 Br
0.500000 0.732736 0.000000 Br
0.500000 0.267264 1.000000 Br
0.500000 0.000000 0.267264 Br
0.232736 0.500000 0.500000 Br
0.500000 0.500000 0.232736 Br
0.500000 0.767264 0.500000 Br
0.500000 0.500000 0.767264 Br
0.732736 0.000000 0.500000 Br
0.267264 0.000000 0.500000 Br
0.000000 0.732736 0.500000 Br
0.000000 0.267264 0.500000 Br
0.000000 0.000000 0.767264 Br
0.732736 0.500000 0.000000 Br
0.267264 0.500000 1.000000 Br
1.000000 0.232736 0.000000 Br
0.000000 0.767264 1.000000 Br
0.232736 0.000000 1.000000 Cl
0.500000 0.000000 0.732736 Cl
0.767264 0.500000 0.500000 Cl
0.500000 0.232736 0.500000 Cl
0.000000 0.000000 0.232736 Cl
0.000000 0.500000 0.732736 Cl
0.000000 0.500000 0.267264 Cl
