Cs8 Sc4 In4 I17 Br7
1.0
12.288285 0.000000 0.000000
-0.000000 12.288285 0.000000
0.000000 0.000000 12.288285
Cs Sc In I Br
8 4 4 17 7
direct
0.750000 0.750000 0.750000 Cs
0.250000 0.250000 0.250000 Cs
0.750000 0.250000 0.250000 Cs
0.250000 0.750000 0.750000 Cs
0.250000 0.750000 0.250000 Cs
0.750000 0.250000 0.750000 Cs
0.250000 0.250000 0.750000 Cs
0.750000 0.750000 0.250000 Cs
0.000000 0.000000 0.000000 Sc
0.000000 0.500000 0.500000 Sc
0.500000 0.000000 0.500000 Sc
0.500000 0.500000 1.000000 Sc
0.500000 0.000000 1.000000 In
0.500000 0.500000 0.500000 In
0.000000 0.000000 0.500000 In
0.000000 0.500000 1.000000 In
0.500000 0.000000 0.728758 I
0.771242 0.000000 1.000000 I
0.500000 0.728758 0.000000 I
0.500000 0.271242 1.000000 I
0.228758 0.500000 0.500000 I
0.771242 0.500000 0.500000 I
0.500000 0.228758 0.500000 I
0.500000 0.771242 0.500000 I
0.500000 0.500000 0.771242 I
0.728758 0.000000 0.500000 I
0.000000 0.000000 0.228758 I
0.000000 0.000000 0.771242 I
0.728758 0.500000 0.000000 I
0.000000 0.500000 0.728758 I
0.271242 0.500000 1.000000 I
0.000000 0.228758 0.000000 I
1.000000 0.771242 0.000000 I
0.228758 0.000000 0.000000 Br
0.500000 0.000000 0.271242 Br
0.500000 0.500000 0.228758 Br
0.271242 0.000000 0.500000 Br
0.000000 0.728758 0.500000 Br
0.000000 0.271242 0.500000 Br
0.000000 0.500000 0.271242 Br
