Cs8 In2 Ga4 Ag2 Cl24
1.0
10.691079 0.000000 0.000000
-0.000000 10.691079 0.000000
0.000000 0.000000 10.691079
Cs In Ga Ag Cl
8 2 4 2 24
direct
0.750000 0.750000 0.750000 Cs
0.250000 0.250000 0.250000 Cs
0.750000 0.250000 0.250000 Cs
0.250000 0.750000 0.750000 Cs
0.250000 0.750000 0.250000 Cs
0.750000 0.250000 0.750000 Cs
0.250000 0.250000 0.750000 Cs
0.750000 0.750000 0.250000 Cs
0.500000 0.000000 1.000000 In
0.000000 0.500000 1.000000 In
0.000000 0.000000 0.000000 Ga
0.000000 0.500000 0.500000 Ga
0.500000 0.000000 0.500000 Ga
0.500000 0.500000 1.000000 Ga
0.500000 0.500000 0.500000 Ag
0.000000 0.000000 0.500000 Ag
0.232697 0.000000 1.000000 Cl
0.500000 0.000000 0.732697 Cl
0.767303 0.000000 1.000000 Cl
0.500000 0.732697 1.000000 Cl
0.500000 0.267303 1.000000 Cl
0.500000 0.000000 0.267303 Cl
0.232697 0.500000 0.500000 Cl
0.500000 0.500000 0.232697 Cl
0.767303 0.500000 0.500000 Cl
0.500000 0.232697 0.500000 Cl
0.500000 0.767303 0.500000 Cl
0.500000 0.500000 0.767303 Cl
0.732697 0.000000 0.500000 Cl
0.000000 0.000000 0.232697 Cl
0.267303 0.000000 0.500000 Cl
0.000000 0.732697 0.500000 Cl
0.000000 0.267303 0.500000 Cl
0.000000 0.000000 0.767303 Cl
0.732697 0.500000 1.000000 Cl
0.000000 0.500000 0.732697 Cl
0.267303 0.500000 0.000000 Cl
0.000000 0.232697 0.000000 Cl
0.000000 0.767303 0.000000 Cl
0.000000 0.500000 0.267303 Cl
