Cs8 In2 Bi2 Au4 Br24
1.0
11.327301 0.000000 0.000000
-0.000000 11.327301 0.000000
0.000000 0.000000 11.327301
Cs In Bi Au Br
8 2 2 4 24
direct
0.750000 0.750000 0.750000 Cs
0.250000 0.250000 0.250000 Cs
0.750000 0.250000 0.250000 Cs
0.250000 0.750000 0.750000 Cs
0.250000 0.750000 0.250000 Cs
0.750000 0.250000 0.750000 Cs
0.250000 0.250000 0.750000 Cs
0.750000 0.750000 0.250000 Cs
0.000000 0.000000 0.000000 In
0.500000 0.000000 0.500000 In
0.000000 0.500000 0.500000 Bi
0.500000 0.500000 1.000000 Bi
0.500000 0.000000 1.000000 Au
0.500000 0.500000 0.500000 Au
0.000000 0.000000 0.500000 Au
0.000000 0.500000 1.000000 Au
0.247494 0.000000 1.000000 Br
0.500000 0.000000 0.747494 Br
0.752506 0.000000 1.000000 Br
0.500000 0.747494 0.000000 Br
0.500000 0.252506 1.000000 Br
0.500000 0.000000 0.252506 Br
0.247494 0.500000 0.500000 Br
0.500000 0.500000 0.247494 Br
0.752506 0.500000 0.500000 Br
0.500000 0.247494 0.500000 Br
0.500000 0.752506 0.500000 Br
0.500000 0.500000 0.752506 Br
0.747494 0.000000 0.500000 Br
0.000000 0.000000 0.247494 Br
0.252506 0.000000 0.500000 Br
1.000000 0.747494 0.500000 Br
0.000000 0.252506 0.500000 Br
0.000000 0.000000 0.752506 Br
0.747494 0.500000 0.000000 Br
0.000000 0.500000 0.747494 Br
0.252506 0.500000 1.000000 Br
0.000000 0.247494 1.000000 Br
0.000000 0.752506 1.000000 Br
0.000000 0.500000 0.252506 Br
