Cs8 Ga4 Ag4 I17 Br7
1.0
11.583722 0.000000 0.000000
-0.000000 11.583722 0.000000
0.000000 0.000000 11.583722
Cs Ga Ag I Br
8 4 4 17 7
direct
0.750000 0.750000 0.750000 Cs
0.250000 0.250000 0.250000 Cs
0.750000 0.250000 0.250000 Cs
0.250000 0.750000 0.750000 Cs
0.250000 0.750000 0.250000 Cs
0.750000 0.250000 0.750000 Cs
0.250000 0.250000 0.750000 Cs
0.750000 0.750000 0.250000 Cs
0.000000 0.000000 0.000000 Ga
0.000000 0.500000 0.500000 Ga
0.500000 0.000000 0.500000 Ga
0.500000 0.500000 0.000000 Ga
0.500000 0.000000 0.000000 Ag
0.500000 0.500000 0.500000 Ag
0.000000 0.000000 0.500000 Ag
0.000000 0.500000 0.000000 Ag
0.237409 0.000000 1.000000 I
0.500000 0.000000 0.737409 I
0.762591 0.000000 1.000000 I
0.500000 0.737409 1.000000 I
0.500000 0.262591 0.000000 I
0.500000 0.000000 0.262591 I
0.500000 0.500000 0.237409 I
0.500000 0.237409 0.500000 I
0.500000 0.762591 0.500000 I
0.737409 0.000000 0.500000 I
0.000000 0.000000 0.237409 I
0.000000 0.737409 0.500000 I
0.000000 0.500000 0.737409 I
0.262591 0.500000 0.000000 I
1.000000 0.237409 1.000000 I
1.000000 0.762591 0.000000 I
0.000000 0.500000 0.262591 I
0.237409 0.500000 0.500000 Br
0.762591 0.500000 0.500000 Br
0.500000 0.500000 0.762591 Br
0.262591 0.000000 0.500000 Br
1.000000 0.262591 0.500000 Br
0.000000 0.000000 0.762591 Br
0.737409 0.500000 1.000000 Br
