Cs8 Tl1 In3 Ag4 I24
1.0
12.060407 0.000000 0.000000
-0.000000 12.060407 0.000000
0.000000 0.000000 12.060407
Cs Tl In Ag I
8 1 3 4 24
direct
0.750000 0.750000 0.750000 Cs
0.250000 0.250000 0.250000 Cs
0.750000 0.250000 0.250000 Cs
0.250000 0.750000 0.750000 Cs
0.250000 0.750000 0.250000 Cs
0.750000 0.250000 0.750000 Cs
0.250000 0.250000 0.750000 Cs
0.750000 0.750000 0.250000 Cs
0.500000 0.000000 0.500000 Tl
0.000000 0.000000 0.000000 In
0.000000 0.500000 0.500000 In
0.500000 0.500000 1.000000 In
0.500000 0.000000 1.000000 Ag
0.500000 0.500000 0.500000 Ag
0.000000 0.000000 0.500000 Ag
0.000000 0.500000 1.000000 Ag
0.248032 0.000000 1.000000 I
0.500000 0.000000 0.748032 I
0.751968 0.000000 1.000000 I
0.500000 0.748032 1.000000 I
0.500000 0.251968 1.000000 I
0.500000 0.000000 0.251968 I
0.248032 0.500000 0.500000 I
0.500000 0.500000 0.248032 I
0.751968 0.500000 0.500000 I
0.500000 0.248032 0.500000 I
0.500000 0.751968 0.500000 I
0.500000 0.500000 0.751968 I
0.748032 0.000000 0.500000 I
0.000000 0.000000 0.248032 I
0.251968 0.000000 0.500000 I
0.000000 0.748032 0.500000 I
0.000000 0.251968 0.500000 I
0.000000 0.000000 0.751968 I
0.748032 0.500000 1.000000 I
0.000000 0.500000 0.748032 I
0.251968 0.500000 1.000000 I
0.000000 0.248032 1.000000 I
1.000000 0.751968 0.000000 I
0.000000 0.500000 0.251968 I
