Cs8 In4 Au4 I22 Br2
1.0
11.948165 0.000000 0.000000
-0.000000 11.948165 0.000000
0.000000 0.000000 11.948165
Cs In Au I Br
8 4 4 22 2
direct
0.750000 0.750000 0.750000 Cs
0.250000 0.250000 0.250000 Cs
0.750000 0.250000 0.250000 Cs
0.250000 0.750000 0.750000 Cs
0.250000 0.750000 0.250000 Cs
0.750000 0.250000 0.750000 Cs
0.250000 0.250000 0.750000 Cs
0.750000 0.750000 0.250000 Cs
0.000000 0.000000 0.000000 In
0.000000 0.500000 0.500000 In
0.500000 0.000000 0.500000 In
0.500000 0.500000 0.000000 In
0.500000 0.000000 0.000000 Au
0.500000 0.500000 0.500000 Au
0.000000 0.000000 0.500000 Au
0.000000 0.500000 0.000000 Au
0.247494 0.000000 1.000000 I
0.500000 0.000000 0.747494 I
0.752506 0.000000 0.000000 I
0.500000 0.747494 1.000000 I
0.500000 0.252506 0.000000 I
0.500000 0.000000 0.252506 I
0.247494 0.500000 0.500000 I
0.752506 0.500000 0.500000 I
0.500000 0.247494 0.500000 I
0.500000 0.752506 0.500000 I
0.500000 0.500000 0.752506 I
0.747494 0.000000 0.500000 I
0.000000 0.000000 0.247494 I
0.252506 0.000000 0.500000 I
0.000000 0.747494 0.500000 I
0.000000 0.252506 0.500000 I
0.000000 0.000000 0.752506 I
0.747494 0.500000 1.000000 I
0.000000 0.500000 0.747494 I
0.252506 0.500000 0.000000 I
1.000000 0.752506 0.000000 I
0.000000 0.500000 0.252506 I
0.500000 0.500000 0.247494 Br
0.000000 0.247494 1.000000 Br
