Cs8 Tl3 Sb4 Au1 Br24
1.0
11.806029 0.000000 0.000000
-0.000000 11.806029 0.000000
0.000000 0.000000 11.806029
Cs Tl Sb Au Br
8 3 4 1 24
direct
0.750000 0.750000 0.750000 Cs
0.250000 0.250000 0.250000 Cs
0.750000 0.250000 0.250000 Cs
0.250000 0.750000 0.750000 Cs
0.250000 0.750000 0.250000 Cs
0.750000 0.250000 0.750000 Cs
0.250000 0.250000 0.750000 Cs
0.750000 0.750000 0.250000 Cs
0.500000 0.500000 0.500000 Tl
0.000000 0.000000 0.500000 Tl
1.000000 0.500000 0.000000 Tl
0.000000 0.000000 0.000000 Sb
1.000000 0.500000 0.500000 Sb
0.500000 0.000000 0.500000 Sb
0.500000 0.500000 1.000000 Sb
0.500000 0.000000 1.000000 Au
0.235524 0.000000 1.000000 Br
0.500000 0.000000 0.735524 Br
0.764476 0.000000 0.000000 Br
0.500000 0.735524 1.000000 Br
0.500000 0.264476 1.000000 Br
0.500000 0.000000 0.264476 Br
0.235524 0.500000 0.500000 Br
0.500000 0.500000 0.235524 Br
0.764476 0.500000 0.500000 Br
0.500000 0.235524 0.500000 Br
0.500000 0.764476 0.500000 Br
0.500000 0.500000 0.764476 Br
0.735524 0.000000 0.500000 Br
0.000000 0.000000 0.235524 Br
0.264476 0.000000 0.500000 Br
0.000000 0.735524 0.500000 Br
1.000000 0.264476 0.500000 Br
0.000000 0.000000 0.764476 Br
0.735524 0.500000 1.000000 Br
1.000000 0.500000 0.735524 Br
0.264476 0.500000 0.000000 Br
1.000000 0.235524 0.000000 Br
1.000000 0.764476 0.000000 Br
1.000000 0.500000 0.264476 Br
