Cs8 Tl2 In2 Cu4 Cl24
1.0
10.420390 0.000000 0.000000
-0.000000 10.420390 0.000000
0.000000 0.000000 10.420390
Cs Tl In Cu Cl
8 2 2 4 24
direct
0.750000 0.750000 0.750000 Cs
0.250000 0.250000 0.250000 Cs
0.750000 0.250000 0.250000 Cs
0.250000 0.750000 0.750000 Cs
0.250000 0.750000 0.250000 Cs
0.750000 0.250000 0.750000 Cs
0.250000 0.250000 0.750000 Cs
0.750000 0.750000 0.250000 Cs
0.000000 0.000000 0.000000 Tl
0.500000 0.500000 1.000000 Tl
1.000000 0.500000 0.500000 In
0.500000 0.000000 0.500000 In
0.500000 0.000000 1.000000 Cu
0.500000 0.500000 0.500000 Cu
0.000000 0.000000 0.500000 Cu
1.000000 0.500000 0.000000 Cu
0.263455 0.000000 0.000000 Cl
0.500000 0.000000 0.763455 Cl
0.736545 0.000000 0.000000 Cl
0.500000 0.763455 0.000000 Cl
0.500000 0.236545 1.000000 Cl
0.500000 0.000000 0.236545 Cl
0.263455 0.500000 0.500000 Cl
0.500000 0.500000 0.263455 Cl
0.736545 0.500000 0.500000 Cl
0.500000 0.263455 0.500000 Cl
0.500000 0.736545 0.500000 Cl
0.500000 0.500000 0.736545 Cl
0.763455 0.000000 0.500000 Cl
0.000000 0.000000 0.263455 Cl
0.236545 0.000000 0.500000 Cl
0.000000 0.763455 0.500000 Cl
1.000000 0.236545 0.500000 Cl
0.000000 0.000000 0.736545 Cl
0.763455 0.500000 1.000000 Cl
1.000000 0.500000 0.763455 Cl
0.236545 0.500000 0.000000 Cl
0.000000 0.263455 1.000000 Cl
1.000000 0.736545 0.000000 Cl
1.000000 0.500000 0.236545 Cl
