Cs8 Sc4 In2 Cu2 Cl24
1.0
10.745868 0.000000 0.000000
-0.000000 10.745868 0.000000
0.000000 0.000000 10.745868
Cs Sc In Cu Cl
8 4 2 2 24
direct
0.750000 0.750000 0.750000 Cs
0.250000 0.250000 0.250000 Cs
0.750000 0.250000 0.250000 Cs
0.250000 0.750000 0.750000 Cs
0.250000 0.750000 0.250000 Cs
0.750000 0.250000 0.750000 Cs
0.250000 0.250000 0.750000 Cs
0.750000 0.750000 0.250000 Cs
0.000000 0.000000 0.000000 Sc
0.000000 0.500000 0.500000 Sc
0.500000 0.000000 0.500000 Sc
0.500000 0.500000 1.000000 Sc
0.500000 0.000000 1.000000 In
0.500000 0.500000 0.500000 In
0.000000 0.000000 0.500000 Cu
0.000000 0.500000 1.000000 Cu
0.224878 0.000000 0.000000 Cl
0.500000 0.000000 0.724878 Cl
0.775122 0.000000 0.000000 Cl
0.500000 0.724878 1.000000 Cl
0.500000 0.275122 1.000000 Cl
0.500000 0.000000 0.275122 Cl
0.224878 0.500000 0.500000 Cl
0.500000 0.500000 0.224878 Cl
0.775122 0.500000 0.500000 Cl
0.500000 0.224878 0.500000 Cl
0.500000 0.775122 0.500000 Cl
0.500000 0.500000 0.775122 Cl
0.724878 0.000000 0.500000 Cl
0.000000 0.000000 0.224878 Cl
0.275122 0.000000 0.500000 Cl
0.000000 0.724878 0.500000 Cl
0.000000 0.275122 0.500000 Cl
0.000000 0.000000 0.775122 Cl
0.724878 0.500000 1.000000 Cl
0.000000 0.500000 0.724878 Cl
0.275122 0.500000 1.000000 Cl
0.000000 0.224878 0.000000 Cl
1.000000 0.775122 0.000000 Cl
0.000000 0.500000 0.275122 Cl
