Cs8 Cu4 Bi2 Sb2 I24
1.0
11.915812 0.000000 0.000000
-0.000000 11.915812 0.000000
0.000000 0.000000 11.915812
Cs Cu Bi Sb I
8 4 2 2 24
direct
0.750000 0.250000 0.750000 Cs
0.750000 0.250000 0.250000 Cs
0.750000 0.750000 0.250000 Cs
0.750000 0.750000 0.750000 Cs
0.250000 0.250000 0.250000 Cs
0.250000 0.250000 0.750000 Cs
0.250000 0.750000 0.750000 Cs
0.250000 0.750000 0.250000 Cs
0.500000 0.500000 0.500000 Cu
0.500000 0.000000 1.000000 Cu
0.000000 0.500000 1.000000 Cu
0.000000 0.000000 0.500000 Cu
0.500000 0.500000 1.000000 Bi
0.000000 0.500000 0.500000 Bi
0.500000 0.000000 0.500000 Sb
0.000000 0.000000 0.000000 Sb
0.000000 0.000000 0.260163 I
0.760163 0.000000 0.500000 I
0.000000 0.000000 0.739837 I
0.000000 0.239837 0.500000 I
0.500000 0.260163 0.500000 I
0.239837 0.000000 0.500000 I
0.000000 0.500000 0.760163 I
0.760163 0.500000 0.000000 I
0.000000 0.500000 0.239837 I
0.000000 0.739837 1.000000 I
0.500000 0.760163 1.000000 I
0.239837 0.500000 1.000000 I
0.500000 0.000000 0.760163 I
0.260163 0.000000 1.000000 I
0.500000 0.000000 0.239837 I
0.500000 0.239837 1.000000 I
0.000000 0.260163 1.000000 I
0.739837 0.000000 1.000000 I
0.500000 0.500000 0.260163 I
0.260163 0.500000 0.500000 I
0.500000 0.500000 0.739837 I
0.500000 0.739837 0.500000 I
0.000000 0.760163 0.500000 I
0.739837 0.500000 0.500000 I
