Cs8 In4 Au4 I12 Br12
1.0
11.604440 0.000000 0.000000
-0.000000 11.604440 0.000000
0.000000 0.000000 11.604440
Cs In Au I Br
8 4 4 12 12
direct
0.750000 0.750000 0.750000 Cs
0.250000 0.250000 0.250000 Cs
0.750000 0.250000 0.250000 Cs
0.250000 0.750000 0.750000 Cs
0.250000 0.750000 0.250000 Cs
0.750000 0.250000 0.750000 Cs
0.250000 0.250000 0.750000 Cs
0.750000 0.750000 0.250000 Cs
0.000000 0.000000 0.000000 In
0.000000 0.500000 0.500000 In
0.500000 0.000000 0.500000 In
0.500000 0.500000 1.000000 In
0.500000 0.000000 1.000000 Au
0.500000 0.500000 0.500000 Au
0.000000 0.000000 0.500000 Au
0.000000 0.500000 1.000000 Au
0.752506 0.000000 1.000000 I
0.500000 0.747494 0.000000 I
0.500000 0.000000 0.252506 I
0.247494 0.500000 0.500000 I
0.500000 0.500000 0.247494 I
0.752506 0.500000 0.500000 I
0.500000 0.500000 0.752506 I
1.000000 0.747494 0.500000 I
0.000000 0.252506 0.500000 I
0.000000 0.000000 0.752506 I
0.747494 0.500000 1.000000 I
0.000000 0.500000 0.252506 I
0.247494 0.000000 1.000000 Br
0.500000 0.000000 0.747494 Br
0.500000 0.252506 1.000000 Br
0.500000 0.247494 0.500000 Br
0.500000 0.752506 0.500000 Br
0.747494 0.000000 0.500000 Br
0.000000 0.000000 0.247494 Br
0.252506 0.000000 0.500000 Br
0.000000 0.500000 0.747494 Br
0.252506 0.500000 1.000000 Br
0.000000 0.247494 1.000000 Br
0.000000 0.752506 1.000000 Br
