Cs8 Tl4 In4 I22 Br2
1.0
12.561641 0.000000 0.000000
-0.000000 12.561641 0.000000
0.000000 0.000000 12.561641
Cs Tl In I Br
8 4 4 22 2
direct
0.250000 0.250000 0.250000 Cs
0.750000 0.750000 0.750000 Cs
0.250000 0.750000 0.750000 Cs
0.750000 0.250000 0.250000 Cs
0.750000 0.250000 0.750000 Cs
0.250000 0.750000 0.250000 Cs
0.750000 0.750000 0.250000 Cs
0.250000 0.250000 0.750000 Cs
0.000000 0.500000 0.500000 Tl
0.000000 0.000000 0.000000 Tl
0.500000 0.500000 0.000000 Tl
0.500000 0.000000 0.500000 Tl
0.500000 0.500000 0.500000 In
0.500000 0.000000 0.000000 In
0.000000 0.500000 0.000000 In
0.000000 0.000000 0.500000 In
0.730622 0.500000 0.500000 I
0.000000 0.500000 0.230622 I
0.269378 0.500000 0.500000 I
1.000000 0.230622 0.500000 I
1.000000 0.769378 0.500000 I
0.730622 0.000000 0.000000 I
0.000000 0.000000 0.730622 I
0.269378 0.000000 1.000000 I
0.000000 0.730622 0.000000 I
1.000000 0.269378 0.000000 I
0.000000 0.000000 0.269378 I
0.230622 0.500000 0.000000 I
0.500000 0.500000 0.730622 I
0.769378 0.500000 0.000000 I
0.500000 0.230622 0.000000 I
0.500000 0.769378 0.000000 I
0.230622 0.000000 0.500000 I
0.500000 0.000000 0.230622 I
0.769378 0.000000 0.500000 I
0.500000 0.730622 0.500000 I
0.500000 0.269378 0.500000 I
0.500000 0.000000 0.769378 I
0.000000 0.500000 0.769378 Br
0.500000 0.500000 0.269378 Br
