Cs8 In4 Au4 I17 Br7
1.0
11.778810 0.000000 0.000000
-0.000000 11.778810 0.000000
0.000000 0.000000 11.778810
Cs In Au I Br
8 4 4 17 7
direct
0.750000 0.750000 0.750000 Cs
0.250000 0.250000 0.250000 Cs
0.750000 0.250000 0.250000 Cs
0.250000 0.750000 0.750000 Cs
0.250000 0.750000 0.250000 Cs
0.750000 0.250000 0.750000 Cs
0.250000 0.250000 0.750000 Cs
0.750000 0.750000 0.250000 Cs
0.000000 0.000000 0.000000 In
1.000000 0.500000 0.500000 In
0.500000 0.000000 0.500000 In
0.500000 0.500000 0.000000 In
0.500000 0.000000 0.000000 Au
0.500000 0.500000 0.500000 Au
0.000000 0.000000 0.500000 Au
1.000000 0.500000 0.000000 Au
0.500000 0.000000 0.747494 I
0.752506 0.000000 0.000000 I
0.500000 0.747494 0.000000 I
0.500000 0.252506 0.000000 I
0.500000 0.000000 0.252506 I
0.247494 0.500000 0.500000 I
0.500000 0.500000 0.247494 I
0.752506 0.500000 0.500000 I
0.500000 0.752506 0.500000 I
0.747494 0.000000 0.500000 I
0.000000 0.000000 0.247494 I
0.000000 0.000000 0.752506 I
0.747494 0.500000 1.000000 I
1.000000 0.500000 0.747494 I
0.252506 0.500000 0.000000 I
1.000000 0.247494 0.000000 I
1.000000 0.752506 0.000000 I
0.247494 0.000000 0.000000 Br
0.500000 0.247494 0.500000 Br
0.500000 0.500000 0.752506 Br
0.252506 0.000000 0.500000 Br
0.000000 0.747494 0.500000 Br
1.000000 0.252506 0.500000 Br
1.000000 0.500000 0.252506 Br
