Cs8 Tl2 In4 Ga2 I24
1.0
12.415789 0.000000 0.000000
-0.000000 12.415789 0.000000
0.000000 0.000000 12.415789
Cs Tl In Ga I
8 2 4 2 24
direct
0.750000 0.750000 0.750000 Cs
0.250000 0.250000 0.250000 Cs
0.750000 0.250000 0.250000 Cs
0.250000 0.750000 0.750000 Cs
0.250000 0.750000 0.250000 Cs
0.750000 0.250000 0.750000 Cs
0.250000 0.250000 0.750000 Cs
0.750000 0.750000 0.250000 Cs
0.500000 0.000000 1.000000 Tl
1.000000 0.500000 1.000000 Tl
0.000000 0.000000 0.000000 In
1.000000 0.500000 0.500000 In
0.500000 0.000000 0.500000 In
0.500000 0.500000 1.000000 In
0.500000 0.500000 0.500000 Ga
0.000000 0.000000 0.500000 Ga
0.234798 0.000000 1.000000 I
0.500000 0.000000 0.734798 I
0.765202 0.000000 1.000000 I
0.500000 0.734798 0.000000 I
0.500000 0.265202 1.000000 I
0.500000 0.000000 0.265202 I
0.234798 0.500000 0.500000 I
0.500000 0.500000 0.234798 I
0.765202 0.500000 0.500000 I
0.500000 0.234798 0.500000 I
0.500000 0.765202 0.500000 I
0.500000 0.500000 0.765202 I
0.734798 0.000000 0.500000 I
0.000000 0.000000 0.234798 I
0.265202 0.000000 0.500000 I
0.000000 0.734798 0.500000 I
0.000000 0.265202 0.500000 I
0.000000 0.000000 0.765202 I
0.734798 0.500000 0.000000 I
1.000000 0.500000 0.734798 I
0.265202 0.500000 0.000000 I
0.000000 0.234798 1.000000 I
1.000000 0.765202 0.000000 I
1.000000 0.500000 0.265202 I
