Cs8 Sc4 Tl3 Ag1 I24
1.0
12.541624 0.000000 0.000000
-0.000000 12.541624 0.000000
0.000000 0.000000 12.541624
Cs Sc Tl Ag I
8 4 3 1 24
direct
0.750000 0.750000 0.750000 Cs
0.250000 0.250000 0.250000 Cs
0.750000 0.250000 0.250000 Cs
0.250000 0.750000 0.750000 Cs
0.250000 0.750000 0.250000 Cs
0.750000 0.250000 0.750000 Cs
0.250000 0.250000 0.750000 Cs
0.750000 0.750000 0.250000 Cs
0.000000 0.000000 0.000000 Sc
1.000000 0.500000 0.500000 Sc
0.500000 0.000000 0.500000 Sc
0.500000 0.500000 0.000000 Sc
0.500000 0.000000 0.000000 Tl
0.500000 0.500000 0.500000 Tl
0.000000 0.000000 0.500000 Tl
1.000000 0.500000 0.000000 Ag
0.243667 0.000000 0.000000 I
0.500000 0.000000 0.743667 I
0.756333 0.000000 0.000000 I
0.500000 0.743667 0.000000 I
0.500000 0.256333 0.000000 I
0.500000 0.000000 0.256333 I
0.243667 0.500000 0.500000 I
0.500000 0.500000 0.243667 I
0.756333 0.500000 0.500000 I
0.500000 0.243667 0.500000 I
0.500000 0.756333 0.500000 I
0.500000 0.500000 0.756333 I
0.743667 0.000000 0.500000 I
0.000000 0.000000 0.243667 I
0.256333 0.000000 0.500000 I
1.000000 0.743667 0.500000 I
1.000000 0.256333 0.500000 I
0.000000 0.000000 0.756333 I
0.743667 0.500000 0.000000 I
1.000000 0.500000 0.743667 I
0.256333 0.500000 0.000000 I
1.000000 0.243667 1.000000 I
1.000000 0.756333 0.000000 I
1.000000 0.500000 0.256333 I
