Cs8 Tl4 Ga2 As2 Br24
1.0
11.600925 0.000000 0.000000
-0.000000 11.600925 0.000000
0.000000 0.000000 11.600925
Cs Tl Ga As Br
8 4 2 2 24
direct
0.750000 0.750000 0.750000 Cs
0.250000 0.250000 0.250000 Cs
0.750000 0.250000 0.250000 Cs
0.250000 0.750000 0.750000 Cs
0.250000 0.750000 0.250000 Cs
0.750000 0.250000 0.750000 Cs
0.250000 0.250000 0.750000 Cs
0.750000 0.750000 0.250000 Cs
0.500000 0.000000 0.000000 Tl
0.500000 0.500000 0.500000 Tl
0.000000 0.000000 0.500000 Tl
1.000000 0.500000 0.000000 Tl
0.000000 0.000000 0.000000 Ga
0.500000 0.000000 0.500000 Ga
1.000000 0.500000 0.500000 As
0.500000 0.500000 0.000000 As
0.229766 0.000000 0.000000 Br
0.500000 0.000000 0.729766 Br
0.770234 0.000000 0.000000 Br
0.500000 0.729766 0.000000 Br
0.500000 0.270234 0.000000 Br
0.500000 0.000000 0.270234 Br
0.229766 0.500000 0.500000 Br
0.500000 0.500000 0.229766 Br
0.770234 0.500000 0.500000 Br
0.500000 0.229766 0.500000 Br
0.500000 0.770234 0.500000 Br
0.500000 0.500000 0.770234 Br
0.729766 0.000000 0.500000 Br
0.000000 0.000000 0.229766 Br
0.270234 0.000000 0.500000 Br
1.000000 0.729766 0.500000 Br
1.000000 0.270234 0.500000 Br
0.000000 0.000000 0.770234 Br
0.729766 0.500000 0.000000 Br
1.000000 0.500000 0.729766 Br
0.270234 0.500000 0.000000 Br
1.000000 0.229766 0.000000 Br
1.000000 0.770234 0.000000 Br
1.000000 0.500000 0.270234 Br
