Cs8 Tl4 Bi4 Br2 Cl22
1.0
11.608977 0.000000 0.000000
-0.000000 11.608977 0.000000
0.000000 0.000000 11.608977
Cs Tl Bi Br Cl
8 4 4 2 22
direct
0.750000 0.750000 0.750000 Cs
0.250000 0.250000 0.250000 Cs
0.750000 0.250000 0.250000 Cs
0.250000 0.750000 0.750000 Cs
0.250000 0.750000 0.250000 Cs
0.750000 0.250000 0.750000 Cs
0.250000 0.250000 0.750000 Cs
0.750000 0.750000 0.250000 Cs
0.500000 0.000000 1.000000 Tl
0.500000 0.500000 0.500000 Tl
0.000000 0.000000 0.500000 Tl
0.000000 0.500000 1.000000 Tl
0.000000 0.000000 0.000000 Bi
0.000000 0.500000 0.500000 Bi
0.500000 0.000000 0.500000 Bi
0.500000 0.500000 1.000000 Bi
0.762198 0.000000 1.000000 Br
0.500000 0.737802 0.000000 Br
0.237802 0.000000 1.000000 Cl
0.500000 0.000000 0.737802 Cl
0.500000 0.262198 1.000000 Cl
0.500000 0.000000 0.262198 Cl
0.237802 0.500000 0.500000 Cl
0.500000 0.500000 0.237802 Cl
0.762198 0.500000 0.500000 Cl
0.500000 0.237802 0.500000 Cl
0.500000 0.762198 0.500000 Cl
0.500000 0.500000 0.762198 Cl
0.737802 0.000000 0.500000 Cl
0.000000 0.000000 0.237802 Cl
0.262198 0.000000 0.500000 Cl
0.000000 0.737802 0.500000 Cl
0.000000 0.262198 0.500000 Cl
0.000000 0.000000 0.762198 Cl
0.737802 0.500000 1.000000 Cl
0.000000 0.500000 0.737802 Cl
0.262198 0.500000 0.000000 Cl
0.000000 0.237802 1.000000 Cl
0.000000 0.762198 1.000000 Cl
0.000000 0.500000 0.262198 Cl
