Cs8 Sc4 In1 Au3 Cl24
1.0
10.763450 0.000000 0.000000
-0.000000 10.763450 0.000000
0.000000 0.000000 10.763450
Cs Sc In Au Cl
8 4 1 3 24
direct
0.750000 0.750000 0.750000 Cs
0.250000 0.250000 0.250000 Cs
0.750000 0.250000 0.250000 Cs
0.250000 0.750000 0.750000 Cs
0.250000 0.750000 0.250000 Cs
0.750000 0.250000 0.750000 Cs
0.250000 0.250000 0.750000 Cs
0.750000 0.750000 0.250000 Cs
0.000000 0.000000 0.000000 Sc
1.000000 0.500000 0.500000 Sc
0.500000 0.000000 0.500000 Sc
0.500000 0.500000 1.000000 Sc
0.500000 0.500000 0.500000 In
0.500000 0.000000 1.000000 Au
0.000000 0.000000 0.500000 Au
1.000000 0.500000 0.000000 Au
0.237246 0.000000 0.000000 Cl
0.500000 0.000000 0.737246 Cl
0.762754 0.000000 1.000000 Cl
0.500000 0.737246 0.000000 Cl
0.500000 0.262754 0.000000 Cl
0.500000 0.000000 0.262754 Cl
0.237246 0.500000 0.500000 Cl
0.500000 0.500000 0.237246 Cl
0.762754 0.500000 0.500000 Cl
0.500000 0.237246 0.500000 Cl
0.500000 0.762754 0.500000 Cl
0.500000 0.500000 0.762754 Cl
0.737246 0.000000 0.500000 Cl
0.000000 0.000000 0.237246 Cl
0.262754 0.000000 0.500000 Cl
0.000000 0.737246 0.500000 Cl
1.000000 0.262754 0.500000 Cl
0.000000 0.000000 0.762754 Cl
0.737246 0.500000 0.000000 Cl
1.000000 0.500000 0.737246 Cl
0.262754 0.500000 0.000000 Cl
0.000000 0.237246 0.000000 Cl
1.000000 0.762754 0.000000 Cl
1.000000 0.500000 0.262754 Cl
