Cs8 Ag4 Bi2 Sb2 Br24
1.0
11.433665 0.000000 0.000000
-0.000000 11.433665 0.000000
0.000000 0.000000 11.433665
Cs Ag Bi Sb Br
8 4 2 2 24
direct
0.750000 0.250000 0.250000 Cs
0.250000 0.750000 0.750000 Cs
0.750000 0.750000 0.750000 Cs
0.250000 0.250000 0.250000 Cs
0.250000 0.250000 0.750000 Cs
0.750000 0.750000 0.250000 Cs
0.250000 0.750000 0.250000 Cs
0.750000 0.250000 0.750000 Cs
0.500000 0.500000 0.500000 Ag
0.500000 0.000000 0.000000 Ag
0.000000 0.500000 0.000000 Ag
0.000000 0.000000 0.500000 Ag
0.000000 0.500000 0.500000 Bi
0.000000 0.000000 0.000000 Bi
0.500000 0.500000 0.000000 Sb
0.500000 0.000000 0.500000 Sb
0.248446 0.500000 0.500000 Br
0.500000 0.500000 0.248446 Br
0.751554 0.500000 0.500000 Br
0.500000 0.248446 0.500000 Br
0.500000 0.751554 0.500000 Br
0.500000 0.500000 0.751554 Br
0.248446 0.000000 1.000000 Br
0.500000 0.000000 0.748446 Br
0.751554 0.000000 0.000000 Br
0.500000 0.748446 0.000000 Br
0.500000 0.251554 0.000000 Br
0.500000 0.000000 0.251554 Br
0.748446 0.500000 1.000000 Br
0.000000 0.500000 0.748446 Br
0.251554 0.500000 0.000000 Br
1.000000 0.248446 0.000000 Br
0.000000 0.751554 0.000000 Br
0.000000 0.500000 0.251554 Br
0.748446 0.000000 0.500000 Br
0.000000 0.000000 0.248446 Br
0.251554 0.000000 0.500000 Br
0.000000 0.748446 0.500000 Br
1.000000 0.251554 0.500000 Br
0.000000 0.000000 0.751554 Br
