Cs8 Cu4 Bi1 Sb3 I24
1.0
11.865858 0.000000 0.000000
-0.000000 11.865858 0.000000
0.000000 0.000000 11.865858
Cs Cu Bi Sb I
8 4 1 3 24
direct
0.750000 0.250000 0.750000 Cs
0.750000 0.250000 0.250000 Cs
0.750000 0.750000 0.250000 Cs
0.750000 0.750000 0.750000 Cs
0.250000 0.250000 0.250000 Cs
0.250000 0.250000 0.750000 Cs
0.250000 0.750000 0.750000 Cs
0.250000 0.750000 0.250000 Cs
0.500000 0.500000 0.500000 Cu
0.500000 0.000000 0.000000 Cu
0.000000 0.500000 0.000000 Cu
0.000000 0.000000 0.500000 Cu
0.000000 0.000000 0.000000 Bi
0.500000 0.000000 0.500000 Sb
0.500000 0.500000 0.000000 Sb
0.000000 0.500000 0.500000 Sb
0.000000 0.000000 0.260163 I
0.760163 0.000000 0.500000 I
0.000000 0.000000 0.739837 I
1.000000 0.239837 0.500000 I
0.500000 0.260163 0.500000 I
0.239837 0.000000 0.500000 I
0.000000 0.500000 0.760163 I
0.760163 0.500000 1.000000 I
0.000000 0.500000 0.239837 I
1.000000 0.739837 0.000000 I
0.500000 0.760163 0.000000 I
0.239837 0.500000 0.000000 I
0.500000 0.000000 0.760163 I
0.260163 0.000000 0.000000 I
0.500000 0.000000 0.239837 I
0.500000 0.239837 0.000000 I
0.000000 0.260163 0.000000 I
0.739837 0.000000 0.000000 I
0.500000 0.500000 0.260163 I
0.260163 0.500000 0.500000 I
0.500000 0.500000 0.739837 I
0.500000 0.739837 0.500000 I
0.000000 0.760163 0.500000 I
0.739837 0.500000 0.500000 I
