Cs8 Tl4 In4 I7 Br17
1.0
12.031719 0.000000 0.000000
-0.000000 12.031719 0.000000
0.000000 0.000000 12.031719
Cs Tl In I Br
8 4 4 7 17
direct
0.750000 0.750000 0.750000 Cs
0.250000 0.250000 0.250000 Cs
0.750000 0.250000 0.250000 Cs
0.250000 0.750000 0.750000 Cs
0.250000 0.750000 0.250000 Cs
0.750000 0.250000 0.750000 Cs
0.250000 0.250000 0.750000 Cs
0.750000 0.750000 0.250000 Cs
0.500000 0.000000 0.000000 Tl
0.500000 0.500000 0.500000 Tl
0.000000 0.000000 0.500000 Tl
1.000000 0.500000 0.000000 Tl
0.000000 0.000000 0.000000 In
1.000000 0.500000 0.500000 In
0.500000 0.000000 0.500000 In
0.500000 0.500000 0.000000 In
0.234798 0.000000 0.000000 I
0.500000 0.265202 0.000000 I
0.500000 0.500000 0.765202 I
1.000000 0.734798 0.500000 I
1.000000 0.265202 0.500000 I
0.000000 0.234798 0.000000 I
1.000000 0.765202 0.000000 I
0.500000 0.000000 0.734798 Br
0.765202 0.000000 0.000000 Br
0.500000 0.734798 0.000000 Br
0.500000 0.000000 0.265202 Br
0.234798 0.500000 0.500000 Br
0.500000 0.500000 0.234798 Br
0.765202 0.500000 0.500000 Br
0.500000 0.234798 0.500000 Br
0.500000 0.765202 0.500000 Br
0.734798 0.000000 0.500000 Br
0.000000 0.000000 0.234798 Br
0.265202 0.000000 0.500000 Br
0.000000 0.000000 0.765202 Br
0.734798 0.500000 0.000000 Br
1.000000 0.500000 0.734798 Br
0.265202 0.500000 0.000000 Br
1.000000 0.500000 0.265202 Br
