Cs8 Ga2 Sb2 Au4 I24
1.0
11.914880 0.000000 0.000000
-0.000000 11.914880 0.000000
0.000000 0.000000 11.914880
Cs Ga Sb Au I
8 2 2 4 24
direct
0.750000 0.750000 0.750000 Cs
0.250000 0.250000 0.250000 Cs
0.750000 0.250000 0.250000 Cs
0.250000 0.750000 0.750000 Cs
0.250000 0.750000 0.250000 Cs
0.750000 0.250000 0.750000 Cs
0.250000 0.250000 0.750000 Cs
0.750000 0.750000 0.250000 Cs
0.500000 0.000000 0.500000 Ga
0.500000 0.500000 0.000000 Ga
0.000000 0.000000 0.000000 Sb
0.000000 0.500000 0.500000 Sb
0.500000 0.000000 0.000000 Au
0.500000 0.500000 0.500000 Au
0.000000 0.000000 0.500000 Au
0.000000 0.500000 0.000000 Au
0.252885 0.000000 0.000000 I
0.500000 0.000000 0.752885 I
0.747115 0.000000 1.000000 I
0.500000 0.752885 0.000000 I
0.500000 0.247115 0.000000 I
0.500000 0.000000 0.247115 I
0.252885 0.500000 0.500000 I
0.500000 0.500000 0.252885 I
0.747115 0.500000 0.500000 I
0.500000 0.252885 0.500000 I
0.500000 0.747115 0.500000 I
0.500000 0.500000 0.747115 I
0.752885 0.000000 0.500000 I
0.000000 0.000000 0.252885 I
0.247115 0.000000 0.500000 I
1.000000 0.752885 0.500000 I
1.000000 0.247115 0.500000 I
0.000000 0.000000 0.747115 I
0.752885 0.500000 0.000000 I
0.000000 0.500000 0.752885 I
0.247115 0.500000 1.000000 I
0.000000 0.252885 0.000000 I
1.000000 0.747115 0.000000 I
0.000000 0.500000 0.247115 I
