Cs8 In1 Ga3 Cu4 Cl24
1.0
10.161680 0.000000 0.000000
-0.000000 10.161680 0.000000
0.000000 0.000000 10.161680
Cs In Ga Cu Cl
8 1 3 4 24
direct
0.750000 0.750000 0.750000 Cs
0.250000 0.250000 0.250000 Cs
0.750000 0.250000 0.250000 Cs
0.250000 0.750000 0.750000 Cs
0.250000 0.750000 0.250000 Cs
0.750000 0.250000 0.750000 Cs
0.250000 0.250000 0.750000 Cs
0.750000 0.750000 0.250000 Cs
0.500000 0.000000 0.500000 In
0.000000 0.000000 0.000000 Ga
0.000000 0.500000 0.500000 Ga
0.500000 0.500000 1.000000 Ga
0.500000 0.000000 1.000000 Cu
0.500000 0.500000 0.500000 Cu
0.000000 0.000000 0.500000 Cu
0.000000 0.500000 1.000000 Cu
0.251737 0.000000 1.000000 Cl
0.500000 0.000000 0.751737 Cl
0.748263 0.000000 1.000000 Cl
0.500000 0.751737 0.000000 Cl
0.500000 0.248263 1.000000 Cl
0.500000 0.000000 0.248263 Cl
0.251737 0.500000 0.500000 Cl
0.500000 0.500000 0.251737 Cl
0.748263 0.500000 0.500000 Cl
0.500000 0.251737 0.500000 Cl
0.500000 0.748263 0.500000 Cl
0.500000 0.500000 0.748263 Cl
0.751737 0.000000 0.500000 Cl
0.000000 0.000000 0.251737 Cl
0.248263 0.000000 0.500000 Cl
0.000000 0.751737 0.500000 Cl
0.000000 0.248263 0.500000 Cl
0.000000 0.000000 0.748263 Cl
0.751737 0.500000 0.000000 Cl
0.000000 0.500000 0.751737 Cl
0.248263 0.500000 1.000000 Cl
0.000000 0.251737 0.000000 Cl
0.000000 0.748263 1.000000 Cl
0.000000 0.500000 0.248263 Cl
