Cs8 Tl4 Au4 Br2 Cl22
1.0
10.828943 0.000000 0.000000
-0.000000 10.828943 0.000000
0.000000 0.000000 10.828943
Cs Tl Au Br Cl
8 4 4 2 22
direct
0.250000 0.750000 0.250000 Cs
0.750000 0.250000 0.750000 Cs
0.250000 0.250000 0.750000 Cs
0.750000 0.750000 0.250000 Cs
0.750000 0.750000 0.750000 Cs
0.250000 0.250000 0.250000 Cs
0.750000 0.250000 0.250000 Cs
0.250000 0.750000 0.750000 Cs
0.000000 0.000000 0.500000 Tl
0.000000 0.500000 1.000000 Tl
0.500000 0.000000 1.000000 Tl
0.500000 0.500000 0.500000 Tl
0.500000 0.000000 0.500000 Au
0.500000 0.500000 1.000000 Au
0.000000 0.000000 0.000000 Au
0.000000 0.500000 0.500000 Au
0.000000 0.000000 0.241589 Br
0.500000 0.000000 0.258411 Br
0.741589 0.000000 0.500000 Cl
0.258411 0.000000 0.500000 Cl
0.000000 0.741589 0.500000 Cl
0.000000 0.258411 0.500000 Cl
0.000000 0.000000 0.758411 Cl
0.741589 0.500000 1.000000 Cl
0.000000 0.500000 0.741589 Cl
0.258411 0.500000 1.000000 Cl
0.000000 0.241589 0.000000 Cl
0.000000 0.758411 0.000000 Cl
0.000000 0.500000 0.258411 Cl
0.241589 0.000000 0.000000 Cl
0.500000 0.000000 0.741589 Cl
0.758411 0.000000 0.000000 Cl
0.500000 0.741589 0.000000 Cl
0.500000 0.258411 0.000000 Cl
0.241589 0.500000 0.500000 Cl
0.500000 0.500000 0.241589 Cl
0.758411 0.500000 0.500000 Cl
0.500000 0.241589 0.500000 Cl
0.500000 0.758411 0.500000 Cl
0.500000 0.500000 0.758411 Cl
