Cs8 In8 Br23 Cl1
1.0
11.649993 0.000000 0.000000
-0.000000 11.649993 0.000000
0.000000 0.000000 11.649993
Cs In Br Cl
8 8 23 1
direct
0.750000 0.750000 0.750000 Cs
0.250000 0.250000 0.250000 Cs
0.750000 0.250000 0.250000 Cs
0.250000 0.750000 0.750000 Cs
0.250000 0.750000 0.250000 Cs
0.750000 0.250000 0.750000 Cs
0.250000 0.250000 0.750000 Cs
0.750000 0.750000 0.250000 Cs
0.500000 0.000000 1.000000 In
0.000000 0.000000 0.000000 In
0.500000 0.500000 0.500000 In
1.000000 0.500000 0.500000 In
0.000000 0.000000 0.500000 In
0.500000 0.000000 0.500000 In
1.000000 0.500000 1.000000 In
0.500000 0.500000 1.000000 In
0.234572 0.000000 0.000000 Br
0.500000 0.000000 0.734572 Br
0.765428 0.000000 1.000000 Br
0.500000 0.734572 0.000000 Br
0.500000 0.265428 1.000000 Br
0.500000 0.000000 0.265428 Br
0.234572 0.500000 0.500000 Br
0.500000 0.500000 0.234572 Br
0.765428 0.500000 0.500000 Br
0.500000 0.234572 0.500000 Br
0.500000 0.765428 0.500000 Br
0.500000 0.500000 0.765428 Br
0.734572 0.000000 0.500000 Br
0.000000 0.000000 0.234572 Br
0.265428 0.000000 0.500000 Br
0.000000 0.734572 0.500000 Br
0.000000 0.265428 0.500000 Br
0.000000 0.000000 0.765428 Br
0.734572 0.500000 0.000000 Br
1.000000 0.500000 0.734572 Br
1.000000 0.234572 0.000000 Br
0.000000 0.765428 0.000000 Br
1.000000 0.500000 0.265428 Br
0.265428 0.500000 1.000000 Cl
