Cs8 Cu4 Bi4 Br23 Cl1
1.0
11.149552 0.000000 0.000000
-0.000000 11.149552 0.000000
0.000000 0.000000 11.149552
Cs Cu Bi Br Cl
8 4 4 23 1
direct
0.250000 0.250000 0.250000 Cs
0.250000 0.250000 0.750000 Cs
0.250000 0.750000 0.750000 Cs
0.250000 0.750000 0.250000 Cs
0.750000 0.250000 0.750000 Cs
0.750000 0.250000 0.250000 Cs
0.750000 0.750000 0.250000 Cs
0.750000 0.750000 0.750000 Cs
0.500000 0.000000 0.000000 Cu
0.500000 0.500000 0.500000 Cu
0.000000 0.000000 0.500000 Cu
0.000000 0.500000 0.000000 Cu
0.000000 0.000000 0.000000 Bi
0.000000 0.500000 0.500000 Bi
0.500000 0.000000 0.500000 Bi
0.500000 0.500000 0.000000 Bi
0.500000 0.000000 0.759723 Br
0.259723 0.000000 0.000000 Br
0.500000 0.240277 1.000000 Br
1.000000 0.259723 0.000000 Br
0.740277 0.000000 0.000000 Br
0.500000 0.500000 0.259723 Br
0.259723 0.500000 0.500000 Br
0.500000 0.500000 0.740277 Br
0.500000 0.740277 0.500000 Br
1.000000 0.759723 0.500000 Br
0.740277 0.500000 0.500000 Br
0.000000 0.000000 0.259723 Br
0.759723 0.000000 0.500000 Br
0.000000 0.000000 0.740277 Br
0.000000 0.240277 0.500000 Br
0.500000 0.259723 0.500000 Br
0.240277 0.000000 0.500000 Br
0.000000 0.500000 0.759723 Br
0.759723 0.500000 0.000000 Br
0.000000 0.500000 0.240277 Br
1.000000 0.740277 0.000000 Br
0.500000 0.759723 0.000000 Br
0.240277 0.500000 0.000000 Br
0.500000 0.000000 0.240277 Cl
