Cs8 Ga3 As1 Au4 I24
1.0
11.766661 0.000000 0.000000
-0.000000 11.766661 0.000000
0.000000 0.000000 11.766661
Cs Ga As Au I
8 3 1 4 24
direct
0.750000 0.750000 0.750000 Cs
0.250000 0.250000 0.250000 Cs
0.750000 0.250000 0.250000 Cs
0.250000 0.750000 0.750000 Cs
0.250000 0.750000 0.250000 Cs
0.750000 0.250000 0.750000 Cs
0.250000 0.250000 0.750000 Cs
0.750000 0.750000 0.250000 Cs
0.000000 0.000000 0.000000 Ga
0.000000 0.500000 0.500000 Ga
0.500000 0.000000 0.500000 Ga
0.500000 0.500000 1.000000 As
0.500000 0.000000 1.000000 Au
0.500000 0.500000 0.500000 Au
0.000000 0.000000 0.500000 Au
0.000000 0.500000 1.000000 Au
0.247724 0.000000 1.000000 I
0.500000 0.000000 0.747724 I
0.752276 0.000000 1.000000 I
0.500000 0.747724 1.000000 I
0.500000 0.252276 1.000000 I
0.500000 0.000000 0.252276 I
0.247724 0.500000 0.500000 I
0.500000 0.500000 0.247724 I
0.752276 0.500000 0.500000 I
0.500000 0.247724 0.500000 I
0.500000 0.752276 0.500000 I
0.500000 0.500000 0.752276 I
0.747724 0.000000 0.500000 I
0.000000 0.000000 0.247724 I
0.252276 0.000000 0.500000 I
0.000000 0.747724 0.500000 I
0.000000 0.252276 0.500000 I
0.000000 0.000000 0.752276 I
0.747724 0.500000 1.000000 I
0.000000 0.500000 0.747724 I
0.252276 0.500000 1.000000 I
0.000000 0.247724 1.000000 I
0.000000 0.752276 1.000000 I
0.000000 0.500000 0.252276 I
