Cs8 Tl4 In4 Br23 Cl1
1.0
11.775720 0.000000 0.000000
-0.000000 11.775720 0.000000
0.000000 0.000000 11.775720
Cs Tl In Br Cl
8 4 4 23 1
direct
0.750000 0.750000 0.750000 Cs
0.250000 0.250000 0.250000 Cs
0.750000 0.250000 0.250000 Cs
0.250000 0.750000 0.750000 Cs
0.250000 0.750000 0.250000 Cs
0.750000 0.250000 0.750000 Cs
0.250000 0.250000 0.750000 Cs
0.750000 0.750000 0.250000 Cs
0.500000 0.000000 1.000000 Tl
0.500000 0.500000 0.500000 Tl
0.000000 0.000000 0.500000 Tl
0.000000 0.500000 1.000000 Tl
0.000000 0.000000 0.000000 In
0.000000 0.500000 0.500000 In
0.500000 0.000000 0.500000 In
0.500000 0.500000 1.000000 In
0.230622 0.000000 1.000000 Br
0.500000 0.000000 0.730622 Br
0.769378 0.000000 0.000000 Br
0.500000 0.730622 1.000000 Br
0.500000 0.269378 0.000000 Br
0.500000 0.000000 0.269378 Br
0.230622 0.500000 0.500000 Br
0.500000 0.500000 0.230622 Br
0.769378 0.500000 0.500000 Br
0.500000 0.230622 0.500000 Br
0.500000 0.769378 0.500000 Br
0.500000 0.500000 0.769378 Br
0.730622 0.000000 0.500000 Br
0.000000 0.000000 0.230622 Br
0.269378 0.000000 0.500000 Br
0.000000 0.730622 0.500000 Br
0.000000 0.269378 0.500000 Br
0.000000 0.000000 0.769378 Br
0.000000 0.500000 0.730622 Br
0.269378 0.500000 0.000000 Br
0.000000 0.230622 0.000000 Br
0.000000 0.769378 0.000000 Br
0.000000 0.500000 0.269378 Br
0.730622 0.500000 1.000000 Cl
