Cs8 Sc4 Au4 I23 Br1
1.0
11.881822 0.000000 0.000000
-0.000000 11.881822 0.000000
0.000000 0.000000 11.881822
Cs Sc Au I Br
8 4 4 23 1
direct
0.750000 0.750000 0.750000 Cs
0.250000 0.250000 0.250000 Cs
0.750000 0.250000 0.250000 Cs
0.250000 0.750000 0.750000 Cs
0.250000 0.750000 0.250000 Cs
0.750000 0.250000 0.750000 Cs
0.250000 0.250000 0.750000 Cs
0.750000 0.750000 0.250000 Cs
0.000000 0.000000 0.000000 Sc
1.000000 0.500000 0.500000 Sc
0.500000 0.000000 0.500000 Sc
0.500000 0.500000 1.000000 Sc
0.500000 0.000000 1.000000 Au
0.500000 0.500000 0.500000 Au
0.000000 0.000000 0.500000 Au
1.000000 0.500000 0.000000 Au
0.245047 0.000000 1.000000 I
0.500000 0.000000 0.745047 I
0.754953 0.000000 1.000000 I
0.500000 0.745047 1.000000 I
0.500000 0.254953 0.000000 I
0.500000 0.000000 0.254953 I
0.245047 0.500000 0.500000 I
0.500000 0.500000 0.245047 I
0.754953 0.500000 0.500000 I
0.500000 0.245047 0.500000 I
0.500000 0.754953 0.500000 I
0.500000 0.500000 0.754953 I
0.745047 0.000000 0.500000 I
0.000000 0.000000 0.245047 I
0.254953 0.000000 0.500000 I
1.000000 0.254953 0.500000 I
0.000000 0.000000 0.754953 I
0.745047 0.500000 1.000000 I
1.000000 0.500000 0.745047 I
0.254953 0.500000 0.000000 I
1.000000 0.245047 0.000000 I
1.000000 0.754953 0.000000 I
1.000000 0.500000 0.254953 I
0.000000 0.745047 0.500000 Br
