Cs8 Sc4 Tl3 Au1 Br24
1.0
11.594060 0.000000 0.000000
-0.000000 11.594060 0.000000
0.000000 0.000000 11.594060
Cs Sc Tl Au Br
8 4 3 1 24
direct
0.750000 0.750000 0.750000 Cs
0.250000 0.250000 0.250000 Cs
0.750000 0.250000 0.250000 Cs
0.250000 0.750000 0.750000 Cs
0.250000 0.750000 0.250000 Cs
0.750000 0.250000 0.750000 Cs
0.250000 0.250000 0.750000 Cs
0.750000 0.750000 0.250000 Cs
0.000000 0.000000 0.000000 Sc
1.000000 0.500000 0.500000 Sc
0.500000 0.000000 0.500000 Sc
0.500000 0.500000 1.000000 Sc
0.500000 0.000000 1.000000 Tl
0.000000 0.000000 0.500000 Tl
1.000000 0.500000 0.000000 Tl
0.500000 0.500000 0.500000 Au
0.226952 0.000000 1.000000 Br
0.500000 0.000000 0.726952 Br
0.773048 0.000000 1.000000 Br
0.500000 0.726952 0.000000 Br
0.500000 0.273048 1.000000 Br
0.500000 0.000000 0.273048 Br
0.226952 0.500000 0.500000 Br
0.500000 0.500000 0.226952 Br
0.773048 0.500000 0.500000 Br
0.500000 0.226952 0.500000 Br
0.500000 0.773048 0.500000 Br
0.500000 0.500000 0.773048 Br
0.726952 0.000000 0.500000 Br
0.000000 0.000000 0.226952 Br
0.273048 0.000000 0.500000 Br
1.000000 0.726952 0.500000 Br
1.000000 0.273048 0.500000 Br
0.000000 0.000000 0.773048 Br
0.726952 0.500000 0.000000 Br
1.000000 0.500000 0.726952 Br
0.273048 0.500000 1.000000 Br
1.000000 0.226952 0.000000 Br
1.000000 0.773048 0.000000 Br
1.000000 0.500000 0.273048 Br
