Cs8 Ga4 Au4 Br23 Cl1
1.0
10.935339 0.000000 0.000000
-0.000000 10.935339 0.000000
0.000000 0.000000 10.935339
Cs Ga Au Br Cl
8 4 4 23 1
direct
0.750000 0.750000 0.750000 Cs
0.250000 0.250000 0.250000 Cs
0.750000 0.250000 0.250000 Cs
0.250000 0.750000 0.750000 Cs
0.250000 0.750000 0.250000 Cs
0.750000 0.250000 0.750000 Cs
0.250000 0.250000 0.750000 Cs
0.750000 0.750000 0.250000 Cs
0.000000 0.000000 0.000000 Ga
0.000000 0.500000 0.500000 Ga
0.500000 0.000000 0.500000 Ga
0.500000 0.500000 1.000000 Ga
0.500000 0.000000 1.000000 Au
0.500000 0.500000 0.500000 Au
0.000000 0.000000 0.500000 Au
0.000000 0.500000 1.000000 Au
0.241756 0.000000 1.000000 Br
0.500000 0.000000 0.741756 Br
0.758244 0.000000 1.000000 Br
0.500000 0.741756 0.000000 Br
0.500000 0.258244 1.000000 Br
0.500000 0.000000 0.258244 Br
0.241756 0.500000 0.500000 Br
0.758244 0.500000 0.500000 Br
0.500000 0.241756 0.500000 Br
0.500000 0.758244 0.500000 Br
0.500000 0.500000 0.758244 Br
0.741756 0.000000 0.500000 Br
0.000000 0.000000 0.241756 Br
0.258244 0.000000 0.500000 Br
1.000000 0.741756 0.500000 Br
0.000000 0.258244 0.500000 Br
0.000000 0.000000 0.758244 Br
0.741756 0.500000 1.000000 Br
0.000000 0.500000 0.741756 Br
0.258244 0.500000 0.000000 Br
0.000000 0.241756 1.000000 Br
0.000000 0.758244 1.000000 Br
0.000000 0.500000 0.258244 Br
0.500000 0.500000 0.241756 Cl
