Cs8 Bi4 Au4 Br6 Cl18
1.0
11.085504 0.000000 0.000000
-0.000000 11.085504 0.000000
0.000000 0.000000 11.085504
Cs Bi Au Br Cl
8 4 4 6 18
direct
0.750000 0.750000 0.750000 Cs
0.250000 0.250000 0.250000 Cs
0.750000 0.250000 0.250000 Cs
0.250000 0.750000 0.750000 Cs
0.250000 0.750000 0.250000 Cs
0.750000 0.250000 0.750000 Cs
0.250000 0.250000 0.750000 Cs
0.750000 0.750000 0.250000 Cs
0.000000 0.000000 0.000000 Bi
1.000000 0.500000 0.500000 Bi
0.500000 0.000000 0.500000 Bi
0.500000 0.500000 0.000000 Bi
0.500000 0.000000 0.000000 Au
0.500000 0.500000 0.500000 Au
0.000000 0.000000 0.500000 Au
1.000000 0.500000 0.000000 Au
0.500000 0.750280 0.000000 Br
0.500000 0.500000 0.250280 Br
0.249720 0.000000 0.500000 Br
1.000000 0.750280 0.500000 Br
0.750280 0.500000 0.000000 Br
0.249720 0.500000 0.000000 Br
0.250280 0.000000 0.000000 Cl
0.500000 0.000000 0.750280 Cl
0.749720 0.000000 0.000000 Cl
0.500000 0.249720 0.000000 Cl
0.500000 0.000000 0.249720 Cl
0.250280 0.500000 0.500000 Cl
0.749720 0.500000 0.500000 Cl
0.500000 0.250280 0.500000 Cl
0.500000 0.749720 0.500000 Cl
0.500000 0.500000 0.749720 Cl
0.750280 0.000000 0.500000 Cl
0.000000 0.000000 0.250280 Cl
1.000000 0.249720 0.500000 Cl
0.000000 0.000000 0.749720 Cl
1.000000 0.500000 0.750280 Cl
1.000000 0.250280 0.000000 Cl
1.000000 0.749720 0.000000 Cl
1.000000 0.500000 0.249720 Cl
