Cs8 Tl8 I22 Br2
1.0
12.594794 0.000000 0.000000
-0.000000 12.594794 0.000000
0.000000 0.000000 12.594794
Cs Tl I Br
8 8 22 2
direct
0.750000 0.750000 0.750000 Cs
0.250000 0.250000 0.250000 Cs
0.750000 0.250000 0.250000 Cs
0.250000 0.750000 0.750000 Cs
0.250000 0.750000 0.250000 Cs
0.750000 0.250000 0.750000 Cs
0.250000 0.250000 0.750000 Cs
0.750000 0.750000 0.250000 Cs
0.500000 0.000000 0.000000 Tl
0.000000 0.000000 0.000000 Tl
0.500000 0.500000 0.500000 Tl
1.000000 0.500000 0.500000 Tl
0.000000 0.000000 0.500000 Tl
0.500000 0.000000 0.500000 Tl
1.000000 0.500000 0.000000 Tl
0.500000 0.500000 0.000000 Tl
0.237037 0.000000 0.000000 I
0.500000 0.000000 0.737037 I
0.762963 0.000000 0.000000 I
0.500000 0.737037 0.000000 I
0.500000 0.262963 0.000000 I
0.500000 0.000000 0.262963 I
0.500000 0.500000 0.237037 I
0.762963 0.500000 0.500000 I
0.500000 0.237037 0.500000 I
0.500000 0.500000 0.762963 I
0.737037 0.000000 0.500000 I
0.000000 0.000000 0.237037 I
0.262963 0.000000 0.500000 I
1.000000 0.737037 0.500000 I
1.000000 0.262963 0.500000 I
0.000000 0.000000 0.762963 I
0.737037 0.500000 0.000000 I
1.000000 0.500000 0.737037 I
0.262963 0.500000 0.000000 I
1.000000 0.237037 0.000000 I
1.000000 0.762963 0.000000 I
1.000000 0.500000 0.262963 I
0.237037 0.500000 0.500000 Br
0.500000 0.762963 0.500000 Br
