Cs8 Tl1 In4 Ga3 Br24
1.0
11.547350 0.000000 0.000000
-0.000000 11.547350 0.000000
0.000000 0.000000 11.547350
Cs Tl In Ga Br
8 1 4 3 24
direct
0.250000 0.250000 0.250000 Cs
0.750000 0.750000 0.750000 Cs
0.250000 0.750000 0.750000 Cs
0.750000 0.250000 0.250000 Cs
0.750000 0.250000 0.750000 Cs
0.250000 0.750000 0.250000 Cs
0.750000 0.750000 0.250000 Cs
0.250000 0.250000 0.750000 Cs
0.500000 0.000000 1.000000 Tl
1.000000 0.500000 0.500000 In
0.000000 0.000000 0.000000 In
0.500000 0.500000 1.000000 In
0.500000 0.000000 0.500000 In
0.500000 0.500000 0.500000 Ga
1.000000 0.500000 1.000000 Ga
0.000000 0.000000 0.500000 Ga
0.761067 0.500000 0.500000 Br
1.000000 0.500000 0.261067 Br
0.238933 0.500000 0.500000 Br
0.000000 0.261067 0.500000 Br
1.000000 0.738933 0.500000 Br
1.000000 0.500000 0.738933 Br
0.761067 0.000000 1.000000 Br
0.000000 0.000000 0.761067 Br
0.238933 0.000000 0.000000 Br
1.000000 0.761067 0.000000 Br
0.000000 0.238933 0.000000 Br
0.000000 0.000000 0.238933 Br
0.261067 0.500000 0.000000 Br
0.500000 0.500000 0.761067 Br
0.738933 0.500000 0.000000 Br
0.500000 0.261067 1.000000 Br
0.500000 0.738933 0.000000 Br
0.500000 0.500000 0.238933 Br
0.261067 0.000000 0.500000 Br
0.500000 0.000000 0.261067 Br
0.738933 0.000000 0.500000 Br
0.500000 0.761067 0.500000 Br
0.500000 0.238933 0.500000 Br
0.500000 0.000000 0.738933 Br
