Cs8 Bi4 Au4 Br1 Cl23
1.0
10.965775 0.000000 0.000000
-0.000000 10.965775 0.000000
0.000000 0.000000 10.965775
Cs Bi Au Br Cl
8 4 4 1 23
direct
0.750000 0.750000 0.750000 Cs
0.250000 0.250000 0.250000 Cs
0.750000 0.250000 0.250000 Cs
0.250000 0.750000 0.750000 Cs
0.250000 0.750000 0.250000 Cs
0.750000 0.250000 0.750000 Cs
0.250000 0.250000 0.750000 Cs
0.750000 0.750000 0.250000 Cs
0.000000 0.000000 0.000000 Bi
0.000000 0.500000 0.500000 Bi
0.500000 0.000000 0.500000 Bi
0.500000 0.500000 1.000000 Bi
0.500000 0.000000 1.000000 Au
0.500000 0.500000 0.500000 Au
0.000000 0.000000 0.500000 Au
0.000000 0.500000 1.000000 Au
0.749720 0.500000 0.500000 Br
0.250280 0.000000 1.000000 Cl
0.500000 0.000000 0.750280 Cl
0.749720 0.000000 1.000000 Cl
0.500000 0.750280 0.000000 Cl
0.500000 0.249720 1.000000 Cl
0.500000 0.000000 0.249720 Cl
0.250280 0.500000 0.500000 Cl
0.500000 0.500000 0.250280 Cl
0.500000 0.250280 0.500000 Cl
0.500000 0.749720 0.500000 Cl
0.500000 0.500000 0.749720 Cl
0.750280 0.000000 0.500000 Cl
0.000000 0.000000 0.250280 Cl
0.249720 0.000000 0.500000 Cl
0.000000 0.750280 0.500000 Cl
0.000000 0.249720 0.500000 Cl
0.000000 0.000000 0.749720 Cl
0.750280 0.500000 1.000000 Cl
0.000000 0.500000 0.750280 Cl
0.249720 0.500000 1.000000 Cl
0.000000 0.250280 0.000000 Cl
0.000000 0.749720 1.000000 Cl
0.000000 0.500000 0.249720 Cl
