Cs8 As4 Au4 I12 Br12
1.0
11.442125 0.000000 0.000000
-0.000000 11.442125 0.000000
0.000000 0.000000 11.442125
Cs As Au I Br
8 4 4 12 12
direct
0.750000 0.750000 0.750000 Cs
0.250000 0.250000 0.250000 Cs
0.750000 0.250000 0.250000 Cs
0.250000 0.750000 0.750000 Cs
0.250000 0.750000 0.250000 Cs
0.750000 0.250000 0.750000 Cs
0.250000 0.250000 0.750000 Cs
0.750000 0.750000 0.250000 Cs
0.000000 0.000000 0.000000 As
0.000000 0.500000 0.500000 As
0.500000 0.000000 0.500000 As
0.500000 0.500000 1.000000 As
0.500000 0.000000 1.000000 Au
0.500000 0.500000 0.500000 Au
0.000000 0.000000 0.500000 Au
0.000000 0.500000 1.000000 Au
0.247724 0.000000 1.000000 I
0.500000 0.747724 0.000000 I
0.247724 0.500000 0.500000 I
0.500000 0.500000 0.247724 I
0.752276 0.500000 0.500000 I
0.500000 0.752276 0.500000 I
0.252276 0.000000 0.500000 I
0.000000 0.252276 0.500000 I
0.747724 0.500000 1.000000 I
0.252276 0.500000 0.000000 I
0.000000 0.247724 0.000000 I
0.000000 0.752276 1.000000 I
0.500000 0.000000 0.747724 Br
0.752276 0.000000 1.000000 Br
0.500000 0.252276 1.000000 Br
0.500000 0.000000 0.252276 Br
0.500000 0.247724 0.500000 Br
0.500000 0.500000 0.752276 Br
0.747724 0.000000 0.500000 Br
0.000000 0.000000 0.247724 Br
1.000000 0.747724 0.500000 Br
0.000000 0.000000 0.752276 Br
0.000000 0.500000 0.747724 Br
0.000000 0.500000 0.252276 Br
