Cs8 Tl2 Ag4 Bi2 I24
1.0
12.198981 0.000000 0.000000
-0.000000 12.198981 0.000000
0.000000 0.000000 12.198981
Cs Tl Ag Bi I
8 2 4 2 24
direct
0.250000 0.250000 0.250000 Cs
0.250000 0.250000 0.750000 Cs
0.250000 0.750000 0.750000 Cs
0.250000 0.750000 0.250000 Cs
0.750000 0.250000 0.750000 Cs
0.750000 0.250000 0.250000 Cs
0.750000 0.750000 0.250000 Cs
0.750000 0.750000 0.750000 Cs
0.500000 0.000000 0.500000 Tl
0.500000 0.500000 0.000000 Tl
1.000000 0.500000 0.000000 Ag
0.000000 0.000000 0.500000 Ag
0.500000 0.500000 0.500000 Ag
0.500000 0.000000 0.000000 Ag
0.000000 0.000000 0.000000 Bi
1.000000 0.500000 0.500000 Bi
0.500000 0.000000 0.753060 I
0.746940 0.000000 0.000000 I
0.500000 0.000000 0.246940 I
1.000000 0.253060 0.000000 I
0.500000 0.246940 0.000000 I
0.253060 0.000000 0.000000 I
0.500000 0.500000 0.253060 I
0.746940 0.500000 0.500000 I
0.500000 0.500000 0.746940 I
1.000000 0.753060 0.500000 I
0.500000 0.746940 0.500000 I
0.253060 0.500000 0.500000 I
0.000000 0.000000 0.253060 I
0.246940 0.000000 0.500000 I
0.000000 0.000000 0.746940 I
0.500000 0.253060 0.500000 I
1.000000 0.246940 0.500000 I
0.753060 0.000000 0.500000 I
1.000000 0.500000 0.753060 I
0.246940 0.500000 0.000000 I
1.000000 0.500000 0.246940 I
0.500000 0.753060 0.000000 I
1.000000 0.746940 0.000000 I
0.753060 0.500000 0.000000 I
