Cs8 Ag3 Bi4 Au1 Br24
1.0
11.486622 0.000000 0.000000
-0.000000 11.486622 0.000000
0.000000 0.000000 11.486622
Cs Ag Bi Au Br
8 3 4 1 24
direct
0.750000 0.750000 0.750000 Cs
0.250000 0.250000 0.250000 Cs
0.750000 0.250000 0.250000 Cs
0.250000 0.750000 0.750000 Cs
0.250000 0.750000 0.250000 Cs
0.750000 0.250000 0.750000 Cs
0.250000 0.250000 0.750000 Cs
0.750000 0.750000 0.250000 Cs
0.500000 0.000000 1.000000 Ag
0.500000 0.500000 0.500000 Ag
0.000000 0.000000 0.500000 Ag
0.000000 0.000000 0.000000 Bi
0.000000 0.500000 0.500000 Bi
0.500000 0.000000 0.500000 Bi
0.500000 0.500000 1.000000 Bi
0.000000 0.500000 1.000000 Au
0.252490 0.000000 0.000000 Br
0.500000 0.000000 0.752490 Br
0.747510 0.000000 0.000000 Br
0.500000 0.752490 1.000000 Br
0.500000 0.247510 1.000000 Br
0.500000 0.000000 0.247510 Br
0.252490 0.500000 0.500000 Br
0.500000 0.500000 0.252490 Br
0.747510 0.500000 0.500000 Br
0.500000 0.252490 0.500000 Br
0.500000 0.747510 0.500000 Br
0.500000 0.500000 0.747510 Br
0.752490 0.000000 0.500000 Br
0.000000 0.000000 0.252490 Br
0.247510 0.000000 0.500000 Br
0.000000 0.752490 0.500000 Br
0.000000 0.247510 0.500000 Br
0.000000 0.000000 0.747510 Br
0.752490 0.500000 1.000000 Br
0.000000 0.500000 0.752490 Br
0.247510 0.500000 1.000000 Br
1.000000 0.252490 0.000000 Br
1.000000 0.747510 0.000000 Br
0.000000 0.500000 0.247510 Br
