Cs8 Tl3 In1 Ga4 Br24
1.0
11.540441 0.000000 0.000000
-0.000000 11.540441 0.000000
0.000000 0.000000 11.540441
Cs Tl In Ga Br
8 3 1 4 24
direct
0.750000 0.250000 0.250000 Cs
0.250000 0.750000 0.750000 Cs
0.750000 0.750000 0.750000 Cs
0.250000 0.250000 0.250000 Cs
0.250000 0.250000 0.750000 Cs
0.750000 0.750000 0.250000 Cs
0.250000 0.750000 0.250000 Cs
0.750000 0.250000 0.750000 Cs
0.500000 0.500000 0.500000 Tl
0.500000 0.000000 0.000000 Tl
0.000000 0.000000 0.500000 Tl
1.000000 0.500000 0.000000 In
1.000000 0.500000 0.500000 Ga
0.000000 0.000000 0.000000 Ga
0.500000 0.500000 0.000000 Ga
0.500000 0.000000 0.500000 Ga
0.261067 0.500000 0.500000 Br
0.500000 0.500000 0.261067 Br
0.738933 0.500000 0.500000 Br
0.500000 0.261067 0.500000 Br
0.500000 0.738933 0.500000 Br
0.500000 0.500000 0.738933 Br
0.261067 0.000000 0.000000 Br
0.500000 0.000000 0.761067 Br
0.738933 0.000000 0.000000 Br
0.500000 0.761067 0.000000 Br
0.500000 0.238933 0.000000 Br
0.500000 0.000000 0.238933 Br
0.761067 0.500000 0.000000 Br
1.000000 0.500000 0.761067 Br
0.238933 0.500000 0.000000 Br
1.000000 0.261067 0.000000 Br
1.000000 0.738933 0.000000 Br
1.000000 0.500000 0.238933 Br
0.761067 0.000000 0.500000 Br
0.000000 0.000000 0.261067 Br
0.238933 0.000000 0.500000 Br
1.000000 0.761067 0.500000 Br
1.000000 0.238933 0.500000 Br
0.000000 0.000000 0.738933 Br
