Cs8 Tl1 Sb4 Au3 Cl24
1.0
10.855137 0.000000 0.000000
-0.000000 10.855137 0.000000
0.000000 0.000000 10.855137
Cs Tl Sb Au Cl
8 1 4 3 24
direct
0.250000 0.250000 0.250000 Cs
0.750000 0.750000 0.750000 Cs
0.250000 0.750000 0.750000 Cs
0.750000 0.250000 0.250000 Cs
0.750000 0.250000 0.750000 Cs
0.250000 0.750000 0.250000 Cs
0.750000 0.750000 0.250000 Cs
0.250000 0.250000 0.750000 Cs
0.500000 0.000000 0.500000 Tl
0.500000 0.500000 0.500000 Sb
0.500000 0.000000 0.000000 Sb
1.000000 0.500000 0.000000 Sb
0.000000 0.000000 0.500000 Sb
1.000000 0.500000 0.500000 Au
0.000000 0.000000 0.000000 Au
0.500000 0.500000 0.000000 Au
0.732710 0.500000 0.500000 Cl
1.000000 0.500000 0.232710 Cl
0.267290 0.500000 0.500000 Cl
1.000000 0.232710 0.500000 Cl
0.000000 0.767290 0.500000 Cl
1.000000 0.500000 0.767290 Cl
0.732710 0.000000 0.000000 Cl
0.000000 0.000000 0.732710 Cl
0.267290 0.000000 0.000000 Cl
1.000000 0.732710 0.000000 Cl
1.000000 0.267290 0.000000 Cl
0.000000 0.000000 0.267290 Cl
0.232710 0.500000 0.000000 Cl
0.500000 0.500000 0.732710 Cl
0.767290 0.500000 0.000000 Cl
0.500000 0.232710 0.000000 Cl
0.500000 0.767290 0.000000 Cl
0.500000 0.500000 0.267290 Cl
0.232710 0.000000 0.500000 Cl
0.500000 0.000000 0.232710 Cl
0.767290 0.000000 0.500000 Cl
0.500000 0.732710 0.500000 Cl
0.500000 0.267290 0.500000 Cl
0.500000 0.000000 0.767290 Cl
