Cs8 Tl1 Bi3 Au4 Br24
1.0
11.449227 0.000000 0.000000
-0.000000 11.449227 0.000000
0.000000 0.000000 11.449227
Cs Tl Bi Au Br
8 1 3 4 24
direct
0.750000 0.750000 0.750000 Cs
0.250000 0.250000 0.250000 Cs
0.750000 0.250000 0.250000 Cs
0.250000 0.750000 0.750000 Cs
0.250000 0.750000 0.250000 Cs
0.750000 0.250000 0.750000 Cs
0.250000 0.250000 0.750000 Cs
0.750000 0.750000 0.250000 Cs
0.500000 0.000000 1.000000 Tl
0.500000 0.500000 0.500000 Bi
0.000000 0.000000 0.500000 Bi
0.000000 0.500000 1.000000 Bi
0.000000 0.000000 0.000000 Au
0.000000 0.500000 0.500000 Au
0.500000 0.000000 0.500000 Au
0.500000 0.500000 1.000000 Au
0.241589 0.000000 1.000000 Br
0.500000 0.000000 0.741589 Br
0.758411 0.000000 1.000000 Br
0.500000 0.741589 0.000000 Br
0.500000 0.258411 1.000000 Br
0.500000 0.000000 0.258411 Br
0.241589 0.500000 0.500000 Br
0.500000 0.500000 0.241589 Br
0.758411 0.500000 0.500000 Br
0.500000 0.241589 0.500000 Br
0.500000 0.758411 0.500000 Br
0.500000 0.500000 0.758411 Br
0.741589 0.000000 0.500000 Br
0.000000 0.000000 0.241589 Br
0.258411 0.000000 0.500000 Br
1.000000 0.741589 0.500000 Br
0.000000 0.258411 0.500000 Br
0.000000 0.000000 0.758411 Br
0.741589 0.500000 1.000000 Br
0.000000 0.500000 0.741589 Br
0.258411 0.500000 0.000000 Br
1.000000 0.241589 0.000000 Br
0.000000 0.758411 0.000000 Br
0.000000 0.500000 0.258411 Br
