Cs8 Sc4 Ag4 I12 Br12
1.0
11.570781 0.000000 0.000000
-0.000000 11.570781 0.000000
0.000000 0.000000 11.570781
Cs Sc Ag I Br
8 4 4 12 12
direct
0.750000 0.750000 0.750000 Cs
0.250000 0.250000 0.250000 Cs
0.750000 0.250000 0.250000 Cs
0.250000 0.750000 0.750000 Cs
0.250000 0.750000 0.250000 Cs
0.750000 0.250000 0.750000 Cs
0.250000 0.250000 0.750000 Cs
0.750000 0.750000 0.250000 Cs
0.000000 0.000000 0.000000 Sc
0.000000 0.500000 0.500000 Sc
0.500000 0.000000 0.500000 Sc
0.500000 0.500000 0.000000 Sc
0.500000 0.000000 0.000000 Ag
0.500000 0.500000 0.500000 Ag
0.000000 0.000000 0.500000 Ag
0.000000 0.500000 0.000000 Ag
0.239946 0.000000 0.000000 I
0.760054 0.000000 0.000000 I
0.500000 0.000000 0.260054 I
0.239946 0.500000 0.500000 I
0.500000 0.500000 0.239946 I
0.760054 0.500000 0.500000 I
0.500000 0.760054 0.500000 I
0.260054 0.000000 0.500000 I
0.000000 0.000000 0.760054 I
0.260054 0.500000 0.000000 I
0.000000 0.239946 0.000000 I
0.000000 0.500000 0.260054 I
0.500000 0.000000 0.739946 Br
0.500000 0.739946 0.000000 Br
0.500000 0.260054 0.000000 Br
0.500000 0.239946 0.500000 Br
0.500000 0.500000 0.760054 Br
0.739946 0.000000 0.500000 Br
0.000000 0.000000 0.239946 Br
1.000000 0.739946 0.500000 Br
1.000000 0.260054 0.500000 Br
0.739946 0.500000 1.000000 Br
0.000000 0.500000 0.739946 Br
0.000000 0.760054 0.000000 Br
