Cs8 Tl4 Ag4 I6 Br18
1.0
11.560229 0.000000 0.000000
-0.000000 11.560229 0.000000
0.000000 0.000000 11.560229
Cs Tl Ag I Br
8 4 4 6 18
direct
0.750000 0.750000 0.750000 Cs
0.250000 0.250000 0.250000 Cs
0.750000 0.250000 0.250000 Cs
0.250000 0.750000 0.750000 Cs
0.250000 0.750000 0.250000 Cs
0.750000 0.250000 0.750000 Cs
0.250000 0.250000 0.750000 Cs
0.750000 0.750000 0.250000 Cs
0.000000 0.000000 0.000000 Tl
0.000000 0.500000 0.500000 Tl
0.500000 0.000000 0.500000 Tl
0.500000 0.500000 1.000000 Tl
0.500000 0.000000 1.000000 Ag
0.500000 0.500000 0.500000 Ag
0.000000 0.000000 0.500000 Ag
0.000000 0.500000 1.000000 Ag
0.500000 0.000000 0.751926 I
0.500000 0.000000 0.248074 I
0.251926 0.500000 0.500000 I
0.500000 0.500000 0.251926 I
0.000000 0.248074 0.500000 I
0.248074 0.500000 1.000000 I
0.251926 0.000000 1.000000 Br
0.748074 0.000000 1.000000 Br
0.500000 0.751926 1.000000 Br
0.500000 0.248074 1.000000 Br
0.748074 0.500000 0.500000 Br
0.500000 0.251926 0.500000 Br
0.500000 0.748074 0.500000 Br
0.500000 0.500000 0.748074 Br
0.751926 0.000000 0.500000 Br
0.000000 0.000000 0.251926 Br
0.248074 0.000000 0.500000 Br
0.000000 0.751926 0.500000 Br
0.000000 0.000000 0.748074 Br
0.751926 0.500000 1.000000 Br
0.000000 0.500000 0.751926 Br
0.000000 0.251926 1.000000 Br
0.000000 0.748074 1.000000 Br
0.000000 0.500000 0.248074 Br
