Cs8 Cu4 Sb4 Br2 Cl22
1.0
10.539641 0.000000 0.000000
-0.000000 10.539641 0.000000
0.000000 0.000000 10.539641
Cs Cu Sb Br Cl
8 4 4 2 22
direct
0.750000 0.250000 0.750000 Cs
0.250000 0.250000 0.750000 Cs
0.750000 0.750000 0.250000 Cs
0.250000 0.750000 0.250000 Cs
0.250000 0.250000 0.250000 Cs
0.750000 0.250000 0.250000 Cs
0.250000 0.750000 0.750000 Cs
0.750000 0.750000 0.750000 Cs
0.500000 0.500000 0.500000 Cu
0.500000 0.000000 1.000000 Cu
1.000000 0.500000 1.000000 Cu
0.000000 0.000000 0.500000 Cu
0.000000 0.000000 0.000000 Sb
1.000000 0.500000 0.500000 Sb
0.500000 0.000000 0.500000 Sb
0.500000 0.500000 1.000000 Sb
0.000000 0.000000 0.257298 Br
0.000000 0.000000 0.742702 Br
0.500000 0.500000 0.742702 Cl
0.257298 0.500000 0.500000 Cl
0.500000 0.000000 0.757298 Cl
0.500000 0.257298 0.500000 Cl
0.500000 0.242702 1.000000 Cl
0.742702 0.000000 1.000000 Cl
0.500000 0.000000 0.242702 Cl
0.257298 0.000000 1.000000 Cl
0.500000 0.500000 0.257298 Cl
0.500000 0.757298 0.000000 Cl
0.500000 0.742702 0.500000 Cl
0.742702 0.500000 0.500000 Cl
1.000000 0.500000 0.242702 Cl
0.757298 0.500000 1.000000 Cl
0.000000 0.257298 1.000000 Cl
0.000000 0.242702 0.500000 Cl
0.242702 0.000000 0.500000 Cl
0.757298 0.000000 0.500000 Cl
1.000000 0.500000 0.757298 Cl
1.000000 0.757298 0.500000 Cl
0.000000 0.742702 1.000000 Cl
0.242702 0.500000 0.000000 Cl
