Cs8 Tl1 In4 Au3 Cl24
1.0
10.823583 0.000000 0.000000
-0.000000 10.823583 0.000000
0.000000 0.000000 10.823583
Cs Tl In Au Cl
8 1 4 3 24
direct
0.750000 0.750000 0.750000 Cs
0.250000 0.250000 0.250000 Cs
0.750000 0.250000 0.250000 Cs
0.250000 0.750000 0.750000 Cs
0.250000 0.750000 0.250000 Cs
0.750000 0.250000 0.750000 Cs
0.250000 0.250000 0.750000 Cs
0.750000 0.750000 0.250000 Cs
0.000000 0.000000 0.500000 Tl
0.000000 0.000000 0.000000 In
1.000000 0.500000 0.500000 In
0.500000 0.000000 0.500000 In
0.500000 0.500000 1.000000 In
0.500000 0.000000 1.000000 Au
0.500000 0.500000 0.500000 Au
1.000000 0.500000 1.000000 Au
0.242711 0.000000 0.000000 Cl
0.500000 0.000000 0.742711 Cl
0.757289 0.000000 0.000000 Cl
0.500000 0.742711 0.000000 Cl
0.500000 0.257289 0.000000 Cl
0.500000 0.000000 0.257289 Cl
0.242711 0.500000 0.500000 Cl
0.500000 0.500000 0.242711 Cl
0.757289 0.500000 0.500000 Cl
0.500000 0.242711 0.500000 Cl
0.500000 0.757289 0.500000 Cl
0.500000 0.500000 0.757289 Cl
0.742711 0.000000 0.500000 Cl
0.000000 0.000000 0.242711 Cl
0.257289 0.000000 0.500000 Cl
0.000000 0.742711 0.500000 Cl
0.000000 0.257289 0.500000 Cl
0.000000 0.000000 0.757289 Cl
0.742711 0.500000 1.000000 Cl
1.000000 0.500000 0.742711 Cl
0.257289 0.500000 1.000000 Cl
1.000000 0.242711 0.000000 Cl
1.000000 0.757289 0.000000 Cl
1.000000 0.500000 0.257289 Cl
