Cs8 Tl4 In4 I17 Br7
1.0
12.390013 0.000000 0.000000
-0.000000 12.390013 0.000000
0.000000 0.000000 12.390013
Cs Tl In I Br
8 4 4 17 7
direct
0.250000 0.250000 0.750000 Cs
0.750000 0.750000 0.250000 Cs
0.250000 0.750000 0.250000 Cs
0.750000 0.250000 0.750000 Cs
0.750000 0.250000 0.250000 Cs
0.250000 0.750000 0.750000 Cs
0.750000 0.750000 0.750000 Cs
0.250000 0.250000 0.250000 Cs
1.000000 0.500000 0.000000 Tl
0.000000 0.000000 0.500000 Tl
0.500000 0.500000 0.500000 Tl
0.500000 0.000000 0.000000 Tl
0.500000 0.500000 0.000000 In
0.500000 0.000000 0.500000 In
1.000000 0.500000 0.500000 In
0.000000 0.000000 0.000000 In
0.730622 0.500000 0.000000 I
1.000000 0.500000 0.730622 I
0.269378 0.500000 1.000000 I
1.000000 0.230622 0.000000 I
1.000000 0.769378 0.000000 I
1.000000 0.730622 0.500000 I
0.000000 0.000000 0.769378 I
0.230622 0.500000 0.500000 I
0.500000 0.500000 0.230622 I
0.500000 0.230622 0.500000 I
0.500000 0.769378 0.500000 I
0.500000 0.500000 0.769378 I
0.230622 0.000000 0.000000 I
0.500000 0.000000 0.730622 I
0.500000 0.730622 0.000000 I
0.500000 0.269378 0.000000 I
0.500000 0.000000 0.269378 I
1.000000 0.500000 0.269378 Br
0.730622 0.000000 0.500000 Br
0.000000 0.000000 0.230622 Br
0.269378 0.000000 0.500000 Br
1.000000 0.269378 0.500000 Br
0.769378 0.500000 0.500000 Br
0.769378 0.000000 0.000000 Br
