Cs8 Tl2 In2 Ag4 I24
1.0
12.086395 0.000000 0.000000
-0.000000 12.086395 0.000000
0.000000 0.000000 12.086395
Cs Tl In Ag I
8 2 2 4 24
direct
0.750000 0.750000 0.750000 Cs
0.250000 0.250000 0.250000 Cs
0.750000 0.250000 0.250000 Cs
0.250000 0.750000 0.750000 Cs
0.250000 0.750000 0.250000 Cs
0.750000 0.250000 0.750000 Cs
0.250000 0.250000 0.750000 Cs
0.750000 0.750000 0.250000 Cs
0.500000 0.000000 0.500000 Tl
0.500000 0.500000 0.000000 Tl
0.000000 0.000000 0.000000 In
1.000000 0.500000 0.500000 In
0.500000 0.000000 0.000000 Ag
0.500000 0.500000 0.500000 Ag
0.000000 0.000000 0.500000 Ag
1.000000 0.500000 0.000000 Ag
0.248032 0.000000 0.000000 I
0.500000 0.000000 0.748032 I
0.751968 0.000000 0.000000 I
0.500000 0.748032 0.000000 I
0.500000 0.251968 0.000000 I
0.500000 0.000000 0.251968 I
0.248032 0.500000 0.500000 I
0.500000 0.500000 0.248032 I
0.751968 0.500000 0.500000 I
0.500000 0.248032 0.500000 I
0.500000 0.751968 0.500000 I
0.500000 0.500000 0.751968 I
0.748032 0.000000 0.500000 I
0.000000 0.000000 0.248032 I
0.251968 0.000000 0.500000 I
1.000000 0.748032 0.500000 I
1.000000 0.251968 0.500000 I
0.000000 0.000000 0.751968 I
0.748032 0.500000 0.000000 I
1.000000 0.500000 0.748032 I
0.251968 0.500000 0.000000 I
1.000000 0.248032 0.000000 I
1.000000 0.751968 0.000000 I
1.000000 0.500000 0.251968 I
