Cs8 Tl2 In4 Bi2 Br24
1.0
11.876666 0.000000 0.000000
-0.000000 11.876666 0.000000
0.000000 0.000000 11.876666
Cs Tl In Bi Br
8 2 4 2 24
direct
0.750000 0.750000 0.750000 Cs
0.250000 0.250000 0.250000 Cs
0.750000 0.250000 0.250000 Cs
0.250000 0.750000 0.750000 Cs
0.250000 0.750000 0.250000 Cs
0.750000 0.250000 0.750000 Cs
0.250000 0.250000 0.750000 Cs
0.750000 0.750000 0.250000 Cs
1.000000 0.500000 0.500000 Tl
0.500000 0.000000 0.500000 Tl
0.500000 0.000000 1.000000 In
0.500000 0.500000 0.500000 In
0.000000 0.000000 0.500000 In
1.000000 0.500000 0.000000 In
0.000000 0.000000 0.000000 Bi
0.500000 0.500000 1.000000 Bi
0.241536 0.000000 0.000000 Br
0.500000 0.000000 0.741536 Br
0.758464 0.000000 1.000000 Br
0.500000 0.741536 0.000000 Br
0.500000 0.258464 1.000000 Br
0.500000 0.000000 0.258464 Br
0.241536 0.500000 0.500000 Br
0.500000 0.500000 0.241536 Br
0.758464 0.500000 0.500000 Br
0.500000 0.241536 0.500000 Br
0.500000 0.758464 0.500000 Br
0.500000 0.500000 0.758464 Br
0.741536 0.000000 0.500000 Br
0.000000 0.000000 0.241536 Br
0.258464 0.000000 0.500000 Br
1.000000 0.741536 0.500000 Br
0.000000 0.258464 0.500000 Br
0.000000 0.000000 0.758464 Br
0.741536 0.500000 0.000000 Br
1.000000 0.500000 0.741536 Br
0.258464 0.500000 0.000000 Br
0.000000 0.241536 0.000000 Br
0.000000 0.758464 1.000000 Br
1.000000 0.500000 0.258464 Br
