Cs8 Sc4 Tl4 I12 Br12
1.0
12.176936 0.000000 0.000000
-0.000000 12.176936 0.000000
0.000000 0.000000 12.176936
Cs Sc Tl I Br
8 4 4 12 12
direct
0.750000 0.750000 0.750000 Cs
0.250000 0.250000 0.250000 Cs
0.750000 0.250000 0.250000 Cs
0.250000 0.750000 0.750000 Cs
0.250000 0.750000 0.250000 Cs
0.750000 0.250000 0.750000 Cs
0.250000 0.250000 0.750000 Cs
0.750000 0.750000 0.250000 Cs
0.000000 0.000000 0.000000 Sc
0.000000 0.500000 0.500000 Sc
0.500000 0.000000 0.500000 Sc
0.500000 0.500000 0.000000 Sc
0.500000 0.000000 0.000000 Tl
0.500000 0.500000 0.500000 Tl
0.000000 0.000000 0.500000 Tl
0.000000 0.500000 0.000000 Tl
0.500000 0.726952 1.000000 I
0.500000 0.273048 1.000000 I
0.226952 0.500000 0.500000 I
0.500000 0.500000 0.226952 I
0.773048 0.500000 0.500000 I
0.500000 0.226952 0.500000 I
0.500000 0.500000 0.773048 I
0.000000 0.000000 0.226952 I
0.273048 0.000000 0.500000 I
0.000000 0.000000 0.773048 I
1.000000 0.226952 0.000000 I
0.000000 0.500000 0.273048 I
0.226952 0.000000 0.000000 Br
0.500000 0.000000 0.726952 Br
0.773048 0.000000 0.000000 Br
0.500000 0.000000 0.273048 Br
0.500000 0.773048 0.500000 Br
0.726952 0.000000 0.500000 Br
1.000000 0.726952 0.500000 Br
0.000000 0.273048 0.500000 Br
0.726952 0.500000 1.000000 Br
0.000000 0.500000 0.726952 Br
0.273048 0.500000 1.000000 Br
0.000000 0.773048 0.000000 Br
