Cs8 Sc4 In4 Br2 Cl22
1.0
11.183109 0.000000 0.000000
-0.000000 11.183109 0.000000
0.000000 0.000000 11.183109
Cs Sc In Br Cl
8 4 4 2 22
direct
0.750000 0.750000 0.750000 Cs
0.250000 0.250000 0.250000 Cs
0.750000 0.250000 0.250000 Cs
0.250000 0.750000 0.750000 Cs
0.250000 0.750000 0.250000 Cs
0.750000 0.250000 0.750000 Cs
0.250000 0.250000 0.750000 Cs
0.750000 0.750000 0.250000 Cs
0.000000 0.000000 0.000000 Sc
1.000000 0.500000 0.500000 Sc
0.500000 0.000000 0.500000 Sc
0.500000 0.500000 0.000000 Sc
0.500000 0.000000 0.000000 In
0.500000 0.500000 0.500000 In
0.000000 0.000000 0.500000 In
1.000000 0.500000 0.000000 In
0.500000 0.000000 0.728758 Br
0.271242 0.000000 0.500000 Br
0.228758 0.000000 0.000000 Cl
0.771242 0.000000 1.000000 Cl
0.500000 0.728758 0.000000 Cl
0.500000 0.271242 0.000000 Cl
0.500000 0.000000 0.271242 Cl
0.228758 0.500000 0.500000 Cl
0.500000 0.500000 0.228758 Cl
0.771242 0.500000 0.500000 Cl
0.500000 0.228758 0.500000 Cl
0.500000 0.771242 0.500000 Cl
0.500000 0.500000 0.771242 Cl
0.728758 0.000000 0.500000 Cl
0.000000 0.000000 0.228758 Cl
1.000000 0.728758 0.500000 Cl
1.000000 0.271242 0.500000 Cl
0.000000 0.000000 0.771242 Cl
0.728758 0.500000 0.000000 Cl
1.000000 0.500000 0.728758 Cl
0.271242 0.500000 0.000000 Cl
1.000000 0.228758 0.000000 Cl
0.000000 0.771242 0.000000 Cl
1.000000 0.500000 0.271242 Cl
