Cs8 Tl4 Au4 I22 Br2
1.0
12.102605 0.000000 0.000000
-0.000000 12.102605 0.000000
0.000000 0.000000 12.102605
Cs Tl Au I Br
8 4 4 22 2
direct
0.250000 0.250000 0.750000 Cs
0.750000 0.750000 0.250000 Cs
0.250000 0.750000 0.250000 Cs
0.750000 0.250000 0.750000 Cs
0.750000 0.250000 0.250000 Cs
0.250000 0.750000 0.750000 Cs
0.750000 0.750000 0.750000 Cs
0.250000 0.250000 0.250000 Cs
0.000000 0.500000 1.000000 Tl
0.000000 0.000000 0.500000 Tl
0.500000 0.500000 0.500000 Tl
0.500000 0.000000 1.000000 Tl
0.500000 0.500000 1.000000 Au
0.500000 0.000000 0.500000 Au
0.000000 0.500000 0.500000 Au
0.000000 0.000000 0.000000 Au
0.741589 0.500000 1.000000 I
0.000000 0.500000 0.741589 I
0.258411 0.500000 1.000000 I
0.000000 0.241589 1.000000 I
0.000000 0.758411 1.000000 I
0.000000 0.500000 0.258411 I
0.000000 0.000000 0.241589 I
0.000000 0.741589 0.500000 I
0.000000 0.258411 0.500000 I
0.000000 0.000000 0.758411 I
0.241589 0.500000 0.500000 I
0.500000 0.500000 0.241589 I
0.758411 0.500000 0.500000 I
0.500000 0.241589 0.500000 I
0.500000 0.758411 0.500000 I
0.500000 0.500000 0.758411 I
0.241589 0.000000 1.000000 I
0.500000 0.000000 0.741589 I
0.758411 0.000000 1.000000 I
0.500000 0.741589 1.000000 I
0.500000 0.258411 1.000000 I
0.500000 0.000000 0.258411 I
0.741589 0.000000 0.500000 Br
0.258411 0.000000 0.500000 Br
