Cs8 Tl4 Bi4 Br7 Cl17
1.0
11.728524 0.000000 0.000000
-0.000000 11.728524 0.000000
0.000000 0.000000 11.728524
Cs Tl Bi Br Cl
8 4 4 7 17
direct
0.250000 0.750000 0.250000 Cs
0.750000 0.250000 0.750000 Cs
0.250000 0.250000 0.750000 Cs
0.750000 0.750000 0.250000 Cs
0.750000 0.750000 0.750000 Cs
0.250000 0.250000 0.250000 Cs
0.750000 0.250000 0.250000 Cs
0.250000 0.750000 0.750000 Cs
0.000000 0.000000 0.500000 Tl
1.000000 0.500000 0.000000 Tl
0.500000 0.000000 0.000000 Tl
0.500000 0.500000 0.500000 Tl
0.500000 0.000000 0.500000 Bi
0.500000 0.500000 0.000000 Bi
0.000000 0.000000 0.000000 Bi
1.000000 0.500000 0.500000 Bi
0.262198 0.000000 0.500000 Br
1.000000 0.737802 0.500000 Br
1.000000 0.500000 0.737802 Br
0.762198 0.000000 0.000000 Br
0.500000 0.737802 0.000000 Br
0.237802 0.500000 0.500000 Br
0.500000 0.500000 0.762198 Br
0.737802 0.000000 0.500000 Cl
0.000000 0.000000 0.237802 Cl
1.000000 0.262198 0.500000 Cl
0.000000 0.000000 0.762198 Cl
0.737802 0.500000 0.000000 Cl
0.262198 0.500000 0.000000 Cl
1.000000 0.237802 0.000000 Cl
1.000000 0.762198 0.000000 Cl
1.000000 0.500000 0.262198 Cl
0.237802 0.000000 0.000000 Cl
0.500000 0.000000 0.737802 Cl
0.500000 0.262198 0.000000 Cl
0.500000 0.000000 0.262198 Cl
0.500000 0.500000 0.237802 Cl
0.762198 0.500000 0.500000 Cl
0.500000 0.237802 0.500000 Cl
0.500000 0.762198 0.500000 Cl
