Cs8 Tl4 In4 Br6 Cl18
1.0
11.411564 0.000000 0.000000
-0.000000 11.411564 0.000000
0.000000 0.000000 11.411564
Cs Tl In Br Cl
8 4 4 6 18
direct
0.250000 0.250000 0.250000 Cs
0.750000 0.750000 0.750000 Cs
0.250000 0.750000 0.750000 Cs
0.750000 0.250000 0.250000 Cs
0.750000 0.250000 0.750000 Cs
0.250000 0.750000 0.250000 Cs
0.750000 0.750000 0.250000 Cs
0.250000 0.250000 0.750000 Cs
0.000000 0.500000 0.500000 Tl
0.000000 0.000000 0.000000 Tl
0.500000 0.500000 1.000000 Tl
0.500000 0.000000 0.500000 Tl
0.500000 0.500000 0.500000 In
0.500000 0.000000 1.000000 In
0.000000 0.500000 1.000000 In
0.000000 0.000000 0.500000 In
0.000000 0.226978 0.500000 Br
0.000000 0.726978 1.000000 Br
0.226978 0.500000 1.000000 Br
0.773022 0.500000 1.000000 Br
0.500000 0.226978 1.000000 Br
0.500000 0.726978 0.500000 Br
0.726978 0.500000 0.500000 Cl
0.000000 0.500000 0.226978 Cl
0.273022 0.500000 0.500000 Cl
0.000000 0.773022 0.500000 Cl
0.000000 0.500000 0.773022 Cl
0.726978 0.000000 1.000000 Cl
0.000000 0.000000 0.726978 Cl
0.273022 0.000000 1.000000 Cl
0.000000 0.273022 0.000000 Cl
0.000000 0.000000 0.273022 Cl
0.500000 0.500000 0.726978 Cl
0.500000 0.773022 1.000000 Cl
0.500000 0.500000 0.273022 Cl
0.226978 0.000000 0.500000 Cl
0.500000 0.000000 0.226978 Cl
0.773022 0.000000 0.500000 Cl
0.500000 0.273022 0.500000 Cl
0.500000 0.000000 0.773022 Cl
