Cs8 Tl4 In2 Au2 Br24
1.0
11.577430 0.000000 0.000000
-0.000000 11.577430 0.000000
0.000000 0.000000 11.577430
Cs Tl In Au Br
8 4 2 2 24
direct
0.250000 0.750000 0.250000 Cs
0.750000 0.250000 0.750000 Cs
0.250000 0.250000 0.750000 Cs
0.750000 0.750000 0.250000 Cs
0.750000 0.750000 0.750000 Cs
0.250000 0.250000 0.250000 Cs
0.750000 0.250000 0.250000 Cs
0.250000 0.750000 0.750000 Cs
0.000000 0.000000 0.500000 Tl
1.000000 0.500000 0.000000 Tl
0.500000 0.000000 0.000000 Tl
0.500000 0.500000 0.500000 Tl
0.000000 0.000000 0.000000 In
1.000000 0.500000 0.500000 In
0.500000 0.000000 0.500000 Au
0.500000 0.500000 0.000000 Au
0.741589 0.000000 0.500000 Br
0.000000 0.000000 0.241589 Br
0.258411 0.000000 0.500000 Br
0.000000 0.741589 0.500000 Br
1.000000 0.258411 0.500000 Br
0.000000 0.000000 0.758411 Br
0.741589 0.500000 0.000000 Br
1.000000 0.500000 0.741589 Br
0.258411 0.500000 0.000000 Br
1.000000 0.241589 0.000000 Br
0.000000 0.758411 0.000000 Br
1.000000 0.500000 0.258411 Br
0.241589 0.000000 0.000000 Br
0.500000 0.000000 0.741589 Br
0.758411 0.000000 0.000000 Br
0.500000 0.741589 0.000000 Br
0.500000 0.258411 0.000000 Br
0.500000 0.000000 0.258411 Br
0.241589 0.500000 0.500000 Br
0.500000 0.500000 0.241589 Br
0.758411 0.500000 0.500000 Br
0.500000 0.241589 0.500000 Br
0.500000 0.758411 0.500000 Br
0.500000 0.500000 0.758411 Br
