Cs8 Ag4 Bi4 I12 Br12
1.0
11.883332 0.000000 0.000000
-0.000000 11.883332 0.000000
0.000000 0.000000 11.883332
Cs Ag Bi I Br
8 4 4 12 12
direct
0.250000 0.250000 0.250000 Cs
0.250000 0.250000 0.750000 Cs
0.250000 0.750000 0.750000 Cs
0.250000 0.750000 0.250000 Cs
0.750000 0.250000 0.750000 Cs
0.750000 0.250000 0.250000 Cs
0.750000 0.750000 0.250000 Cs
0.750000 0.750000 0.750000 Cs
1.000000 0.500000 0.000000 Ag
0.000000 0.000000 0.500000 Ag
0.500000 0.500000 0.500000 Ag
0.500000 0.000000 1.000000 Ag
0.000000 0.000000 0.000000 Bi
1.000000 0.500000 0.500000 Bi
0.500000 0.000000 0.500000 Bi
0.500000 0.500000 1.000000 Bi
0.500000 0.000000 0.753060 I
1.000000 0.253060 0.000000 I
0.500000 0.246940 1.000000 I
0.253060 0.000000 0.000000 I
0.500000 0.746940 0.500000 I
0.253060 0.500000 0.500000 I
0.000000 0.000000 0.746940 I
1.000000 0.246940 0.500000 I
0.753060 0.000000 0.500000 I
1.000000 0.500000 0.246940 I
0.500000 0.753060 0.000000 I
1.000000 0.746940 0.000000 I
0.746940 0.000000 0.000000 Br
0.500000 0.000000 0.246940 Br
0.500000 0.500000 0.253060 Br
0.746940 0.500000 0.500000 Br
0.500000 0.500000 0.746940 Br
0.000000 0.753060 0.500000 Br
0.000000 0.000000 0.253060 Br
0.246940 0.000000 0.500000 Br
0.500000 0.253060 0.500000 Br
1.000000 0.500000 0.753060 Br
0.246940 0.500000 1.000000 Br
0.753060 0.500000 1.000000 Br
