Cs8 Sc4 Au4 I2 Br22
1.0
11.187046 0.000000 0.000000
-0.000000 11.187046 0.000000
0.000000 0.000000 11.187046
Cs Sc Au I Br
8 4 4 2 22
direct
0.750000 0.750000 0.750000 Cs
0.250000 0.250000 0.250000 Cs
0.750000 0.250000 0.250000 Cs
0.250000 0.750000 0.750000 Cs
0.250000 0.750000 0.250000 Cs
0.750000 0.250000 0.750000 Cs
0.250000 0.250000 0.750000 Cs
0.750000 0.750000 0.250000 Cs
0.000000 0.000000 0.000000 Sc
0.000000 0.500000 0.500000 Sc
0.500000 0.000000 0.500000 Sc
0.500000 0.500000 0.000000 Sc
0.500000 0.000000 0.000000 Au
0.500000 0.500000 0.500000 Au
0.000000 0.000000 0.500000 Au
0.000000 0.500000 0.000000 Au
0.745047 0.000000 0.500000 I
0.254953 0.000000 0.500000 I
0.245047 0.000000 0.000000 Br
0.500000 0.000000 0.745047 Br
0.754953 0.000000 0.000000 Br
0.500000 0.745047 0.000000 Br
0.500000 0.254953 0.000000 Br
0.500000 0.000000 0.254953 Br
0.245047 0.500000 0.500000 Br
0.500000 0.500000 0.245047 Br
0.754953 0.500000 0.500000 Br
0.500000 0.245047 0.500000 Br
0.500000 0.754953 0.500000 Br
0.500000 0.500000 0.754953 Br
0.000000 0.000000 0.245047 Br
1.000000 0.745047 0.500000 Br
0.000000 0.254953 0.500000 Br
0.000000 0.000000 0.754953 Br
0.745047 0.500000 1.000000 Br
0.000000 0.500000 0.745047 Br
0.254953 0.500000 0.000000 Br
1.000000 0.245047 0.000000 Br
1.000000 0.754953 0.000000 Br
0.000000 0.500000 0.254953 Br
