Cs8 Tl1 In3 As4 I24
1.0
12.294535 0.000000 0.000000
-0.000000 12.294535 0.000000
0.000000 0.000000 12.294535
Cs Tl In As I
8 1 3 4 24
direct
0.250000 0.250000 0.250000 Cs
0.750000 0.750000 0.750000 Cs
0.250000 0.750000 0.750000 Cs
0.750000 0.250000 0.250000 Cs
0.750000 0.250000 0.750000 Cs
0.250000 0.750000 0.250000 Cs
0.750000 0.750000 0.250000 Cs
0.250000 0.250000 0.750000 Cs
0.500000 0.500000 0.000000 Tl
1.000000 0.500000 0.500000 In
0.000000 0.000000 0.000000 In
0.500000 0.000000 0.500000 In
0.500000 0.500000 0.500000 As
0.500000 0.000000 0.000000 As
1.000000 0.500000 0.000000 As
0.000000 0.000000 0.500000 As
0.737594 0.500000 0.500000 I
1.000000 0.500000 0.237594 I
0.262406 0.500000 0.500000 I
1.000000 0.237594 0.500000 I
1.000000 0.762406 0.500000 I
1.000000 0.500000 0.762406 I
0.737594 0.000000 0.000000 I
0.000000 0.000000 0.737594 I
0.262406 0.000000 0.000000 I
1.000000 0.737594 0.000000 I
1.000000 0.262406 0.000000 I
0.000000 0.000000 0.262406 I
0.237594 0.500000 0.000000 I
0.500000 0.500000 0.737594 I
0.762406 0.500000 0.000000 I
0.500000 0.237594 0.000000 I
0.500000 0.762406 0.000000 I
0.500000 0.500000 0.262406 I
0.237594 0.000000 0.500000 I
0.500000 0.000000 0.237594 I
0.762406 0.000000 0.500000 I
0.500000 0.737594 0.500000 I
0.500000 0.262406 0.500000 I
0.500000 0.000000 0.762406 I
