Cs8 Ga1 As3 Au4 Br24
1.0
11.061551 0.000000 0.000000
-0.000000 11.061551 0.000000
0.000000 0.000000 11.061551
Cs Ga As Au Br
8 1 3 4 24
direct
0.750000 0.750000 0.750000 Cs
0.250000 0.250000 0.250000 Cs
0.750000 0.250000 0.250000 Cs
0.250000 0.750000 0.750000 Cs
0.250000 0.750000 0.250000 Cs
0.750000 0.250000 0.750000 Cs
0.250000 0.250000 0.750000 Cs
0.750000 0.750000 0.250000 Cs
0.000000 0.000000 0.000000 Ga
0.000000 0.500000 0.500000 As
0.500000 0.000000 0.500000 As
0.500000 0.500000 1.000000 As
0.500000 0.000000 1.000000 Au
0.500000 0.500000 0.500000 Au
0.000000 0.000000 0.500000 Au
0.000000 0.500000 1.000000 Au
0.241756 0.000000 1.000000 Br
0.500000 0.000000 0.741756 Br
0.758244 0.000000 1.000000 Br
0.500000 0.741756 0.000000 Br
0.500000 0.258244 1.000000 Br
0.500000 0.000000 0.258244 Br
0.241756 0.500000 0.500000 Br
0.500000 0.500000 0.241756 Br
0.758244 0.500000 0.500000 Br
0.500000 0.241756 0.500000 Br
0.500000 0.758244 0.500000 Br
0.500000 0.500000 0.758244 Br
0.741756 0.000000 0.500000 Br
0.000000 0.000000 0.241756 Br
0.258244 0.000000 0.500000 Br
0.000000 0.741756 0.500000 Br
0.000000 0.258244 0.500000 Br
0.000000 0.000000 0.758244 Br
0.741756 0.500000 1.000000 Br
0.000000 0.500000 0.741756 Br
0.258244 0.500000 1.000000 Br
0.000000 0.241756 1.000000 Br
0.000000 0.758244 1.000000 Br
0.000000 0.500000 0.258244 Br
