Cs8 Tl8 I1 Br23
1.0
11.909721 0.000000 0.000000
-0.000000 11.909721 0.000000
0.000000 0.000000 11.909721
Cs Tl I Br
8 8 1 23
direct
0.750000 0.750000 0.750000 Cs
0.250000 0.250000 0.250000 Cs
0.750000 0.250000 0.250000 Cs
0.250000 0.750000 0.750000 Cs
0.250000 0.750000 0.250000 Cs
0.750000 0.250000 0.750000 Cs
0.250000 0.250000 0.750000 Cs
0.750000 0.750000 0.250000 Cs
0.500000 0.000000 0.000000 Tl
0.000000 0.000000 0.000000 Tl
0.500000 0.500000 0.500000 Tl
0.000000 0.500000 0.500000 Tl
0.000000 0.000000 0.500000 Tl
0.500000 0.000000 0.500000 Tl
0.000000 0.500000 0.000000 Tl
0.500000 0.500000 0.000000 Tl
0.762963 0.500000 0.500000 I
0.237037 0.000000 1.000000 Br
0.500000 0.000000 0.737037 Br
0.762963 0.000000 1.000000 Br
0.500000 0.737037 0.000000 Br
0.500000 0.262963 0.000000 Br
0.500000 0.000000 0.262963 Br
0.237037 0.500000 0.500000 Br
0.500000 0.500000 0.237037 Br
0.500000 0.237037 0.500000 Br
0.500000 0.762963 0.500000 Br
0.500000 0.500000 0.762963 Br
0.737037 0.000000 0.500000 Br
0.000000 0.000000 0.237037 Br
0.262963 0.000000 0.500000 Br
1.000000 0.737037 0.500000 Br
1.000000 0.262963 0.500000 Br
0.000000 0.000000 0.762963 Br
0.737037 0.500000 0.000000 Br
0.000000 0.500000 0.737037 Br
0.262963 0.500000 0.000000 Br
0.000000 0.237037 0.000000 Br
0.000000 0.762963 0.000000 Br
0.000000 0.500000 0.262963 Br
