Cs8 In4 Ag4 Br1 Cl23
1.0
10.708911 0.000000 0.000000
-0.000000 10.708911 0.000000
0.000000 0.000000 10.708911
Cs In Ag Br Cl
8 4 4 1 23
direct
0.750000 0.750000 0.750000 Cs
0.250000 0.250000 0.250000 Cs
0.750000 0.250000 0.250000 Cs
0.250000 0.750000 0.750000 Cs
0.250000 0.750000 0.250000 Cs
0.750000 0.250000 0.750000 Cs
0.250000 0.250000 0.750000 Cs
0.750000 0.750000 0.250000 Cs
0.000000 0.000000 0.000000 In
1.000000 0.500000 0.500000 In
0.500000 0.000000 0.500000 In
0.500000 0.500000 0.000000 In
0.500000 0.000000 0.000000 Ag
0.500000 0.500000 0.500000 Ag
0.000000 0.000000 0.500000 Ag
1.000000 0.500000 0.000000 Ag
0.500000 0.000000 0.740636 Br
0.240636 0.000000 0.000000 Cl
0.759364 0.000000 0.000000 Cl
0.500000 0.740636 0.000000 Cl
0.500000 0.259364 0.000000 Cl
0.500000 0.000000 0.259364 Cl
0.240636 0.500000 0.500000 Cl
0.500000 0.500000 0.240636 Cl
0.759364 0.500000 0.500000 Cl
0.500000 0.240636 0.500000 Cl
0.500000 0.759364 0.500000 Cl
0.500000 0.500000 0.759364 Cl
0.740636 0.000000 0.500000 Cl
0.000000 0.000000 0.240636 Cl
0.259364 0.000000 0.500000 Cl
1.000000 0.740636 0.500000 Cl
1.000000 0.259364 0.500000 Cl
0.000000 0.000000 0.759364 Cl
0.740636 0.500000 0.000000 Cl
1.000000 0.500000 0.740636 Cl
0.259364 0.500000 0.000000 Cl
0.000000 0.240636 0.000000 Cl
1.000000 0.759364 0.000000 Cl
1.000000 0.500000 0.259364 Cl
