Cs8 Tl2 Ga4 Au2 Cl24
1.0
10.697373 0.000000 0.000000
-0.000000 10.697373 0.000000
0.000000 0.000000 10.697373
Cs Tl Ga Au Cl
8 2 4 2 24
direct
0.250000 0.250000 0.250000 Cs
0.750000 0.750000 0.750000 Cs
0.250000 0.750000 0.750000 Cs
0.750000 0.250000 0.250000 Cs
0.750000 0.250000 0.750000 Cs
0.250000 0.750000 0.250000 Cs
0.750000 0.750000 0.250000 Cs
0.250000 0.250000 0.750000 Cs
0.500000 0.500000 0.000000 Tl
0.500000 0.000000 0.500000 Tl
0.500000 0.500000 0.500000 Ga
0.500000 0.000000 0.000000 Ga
0.000000 0.500000 0.000000 Ga
0.000000 0.000000 0.500000 Ga
0.000000 0.500000 0.500000 Au
0.000000 0.000000 0.000000 Au
0.719525 0.500000 0.500000 Cl
0.000000 0.500000 0.219525 Cl
0.280475 0.500000 0.500000 Cl
1.000000 0.219525 0.500000 Cl
1.000000 0.780475 0.500000 Cl
0.000000 0.500000 0.780475 Cl
0.719525 0.000000 1.000000 Cl
0.000000 0.000000 0.719525 Cl
0.280475 0.000000 1.000000 Cl
0.000000 0.719525 1.000000 Cl
0.000000 0.280475 1.000000 Cl
0.000000 0.000000 0.280475 Cl
0.219525 0.500000 0.000000 Cl
0.500000 0.500000 0.719525 Cl
0.780475 0.500000 0.000000 Cl
0.500000 0.219525 1.000000 Cl
0.500000 0.780475 0.000000 Cl
0.500000 0.500000 0.280475 Cl
0.219525 0.000000 0.500000 Cl
0.500000 0.000000 0.219525 Cl
0.780475 0.000000 0.500000 Cl
0.500000 0.719525 0.500000 Cl
0.500000 0.280475 0.500000 Cl
0.500000 0.000000 0.780475 Cl
