Cs8 Ag4 As4 Br23 Cl1
1.0
11.079613 0.000000 0.000000
-0.000000 11.079613 0.000000
0.000000 0.000000 11.079613
Cs Ag As Br Cl
8 4 4 23 1
direct
0.250000 0.250000 0.250000 Cs
0.750000 0.750000 0.750000 Cs
0.250000 0.750000 0.750000 Cs
0.750000 0.250000 0.250000 Cs
0.750000 0.250000 0.750000 Cs
0.250000 0.750000 0.250000 Cs
0.750000 0.750000 0.250000 Cs
0.250000 0.250000 0.750000 Cs
1.000000 0.500000 0.500000 Ag
0.000000 0.000000 0.000000 Ag
0.500000 0.500000 1.000000 Ag
0.500000 0.000000 0.500000 Ag
0.500000 0.500000 0.500000 As
0.500000 0.000000 1.000000 As
1.000000 0.500000 0.000000 As
0.000000 0.000000 0.500000 As
0.742447 0.500000 0.500000 Br
1.000000 0.500000 0.242447 Br
0.257553 0.500000 0.500000 Br
1.000000 0.242447 0.500000 Br
1.000000 0.757553 0.500000 Br
1.000000 0.500000 0.757553 Br
0.742447 0.000000 0.000000 Br
0.000000 0.000000 0.742447 Br
0.257553 0.000000 0.000000 Br
0.000000 0.257553 0.000000 Br
0.000000 0.000000 0.257553 Br
0.242447 0.500000 1.000000 Br
0.500000 0.500000 0.742447 Br
0.757553 0.500000 0.000000 Br
0.500000 0.242447 1.000000 Br
0.500000 0.757553 0.000000 Br
0.500000 0.500000 0.257553 Br
0.242447 0.000000 0.500000 Br
0.500000 0.000000 0.242447 Br
0.757553 0.000000 0.500000 Br
0.500000 0.742447 0.500000 Br
0.500000 0.257553 0.500000 Br
0.500000 0.000000 0.757553 Br
1.000000 0.742447 0.000000 Cl
