Cs8 Ga4 Au4 I7 Br17
1.0
11.194054 0.000000 0.000000
-0.000000 11.194054 0.000000
0.000000 0.000000 11.194054
Cs Ga Au I Br
8 4 4 7 17
direct
0.750000 0.750000 0.750000 Cs
0.250000 0.250000 0.250000 Cs
0.750000 0.250000 0.250000 Cs
0.250000 0.750000 0.750000 Cs
0.250000 0.750000 0.250000 Cs
0.750000 0.250000 0.750000 Cs
0.250000 0.250000 0.750000 Cs
0.750000 0.750000 0.250000 Cs
0.000000 0.000000 0.000000 Ga
0.000000 0.500000 0.500000 Ga
0.500000 0.000000 0.500000 Ga
0.500000 0.500000 1.000000 Ga
0.500000 0.000000 1.000000 Au
0.500000 0.500000 0.500000 Au
0.000000 0.000000 0.500000 Au
0.000000 0.500000 1.000000 Au
0.752215 0.000000 1.000000 I
0.500000 0.252215 1.000000 I
0.500000 0.000000 0.252215 I
0.752215 0.500000 0.500000 I
0.500000 0.752215 0.500000 I
0.000000 0.000000 0.247785 I
0.000000 0.752215 1.000000 I
0.247785 0.000000 1.000000 Br
0.500000 0.000000 0.747785 Br
0.500000 0.747785 1.000000 Br
0.247785 0.500000 0.500000 Br
0.500000 0.500000 0.247785 Br
0.500000 0.247785 0.500000 Br
0.500000 0.500000 0.752215 Br
0.747785 0.000000 0.500000 Br
0.252215 0.000000 0.500000 Br
0.000000 0.747785 0.500000 Br
0.000000 0.252215 0.500000 Br
0.000000 0.000000 0.752215 Br
0.747785 0.500000 1.000000 Br
0.000000 0.500000 0.747785 Br
0.252215 0.500000 1.000000 Br
0.000000 0.247785 1.000000 Br
0.000000 0.500000 0.252215 Br
