Cs8 Cu2 Ag2 Sb4 I24
1.0
12.000904 0.000000 0.000000
-0.000000 12.000904 0.000000
0.000000 0.000000 12.000904
Cs Cu Ag Sb I
8 2 2 4 24
direct
0.750000 0.750000 0.750000 Cs
0.250000 0.750000 0.750000 Cs
0.750000 0.250000 0.250000 Cs
0.250000 0.250000 0.250000 Cs
0.250000 0.750000 0.250000 Cs
0.750000 0.750000 0.250000 Cs
0.250000 0.250000 0.750000 Cs
0.750000 0.250000 0.750000 Cs
0.500000 0.500000 0.500000 Cu
0.500000 0.000000 1.000000 Cu
0.000000 0.500000 1.000000 Ag
0.000000 0.000000 0.500000 Ag
0.500000 0.500000 1.000000 Sb
0.500000 0.000000 0.500000 Sb
0.000000 0.500000 0.500000 Sb
0.000000 0.000000 0.000000 Sb
0.000000 0.500000 0.750745 I
1.000000 0.750745 0.500000 I
0.000000 0.500000 0.249255 I
0.750745 0.500000 1.000000 I
0.249255 0.500000 1.000000 I
0.000000 0.749255 0.000000 I
0.000000 0.000000 0.250745 I
0.000000 0.250745 1.000000 I
0.000000 0.000000 0.749255 I
0.750745 0.000000 0.500000 I
0.249255 0.000000 0.500000 I
0.000000 0.249255 0.500000 I
0.500000 0.500000 0.250745 I
0.500000 0.750745 1.000000 I
0.500000 0.500000 0.749255 I
0.250745 0.500000 0.500000 I
0.749255 0.500000 0.500000 I
0.500000 0.749255 0.500000 I
0.500000 0.000000 0.750745 I
0.500000 0.250745 0.500000 I
0.500000 0.000000 0.249255 I
0.250745 0.000000 1.000000 I
0.749255 0.000000 1.000000 I
0.500000 0.249255 1.000000 I
