Cs8 Tl4 Ga3 As1 Cl24
1.0
10.974613 0.000000 0.000000
-0.000000 10.974613 0.000000
0.000000 0.000000 10.974613
Cs Tl Ga As Cl
8 4 3 1 24
direct
0.250000 0.250000 0.750000 Cs
0.750000 0.750000 0.250000 Cs
0.250000 0.750000 0.250000 Cs
0.750000 0.250000 0.750000 Cs
0.750000 0.250000 0.250000 Cs
0.250000 0.750000 0.750000 Cs
0.750000 0.750000 0.750000 Cs
0.250000 0.250000 0.250000 Cs
1.000000 0.500000 0.000000 Tl
0.000000 0.000000 0.500000 Tl
0.500000 0.500000 0.500000 Tl
0.500000 0.000000 0.000000 Tl
0.500000 0.500000 0.000000 Ga
1.000000 0.500000 0.500000 Ga
0.000000 0.000000 0.000000 Ga
0.500000 0.000000 0.500000 As
0.726076 0.500000 0.000000 Cl
1.000000 0.500000 0.726076 Cl
0.273924 0.500000 0.000000 Cl
1.000000 0.226076 0.000000 Cl
1.000000 0.773924 0.000000 Cl
1.000000 0.500000 0.273924 Cl
0.726076 0.000000 0.500000 Cl
0.000000 0.000000 0.226076 Cl
0.273924 0.000000 0.500000 Cl
1.000000 0.726076 0.500000 Cl
1.000000 0.273924 0.500000 Cl
0.000000 0.000000 0.773924 Cl
0.226076 0.500000 0.500000 Cl
0.500000 0.500000 0.226076 Cl
0.773924 0.500000 0.500000 Cl
0.500000 0.226076 0.500000 Cl
0.500000 0.773924 0.500000 Cl
0.500000 0.500000 0.773924 Cl
0.226076 0.000000 0.000000 Cl
0.500000 0.000000 0.726076 Cl
0.773924 0.000000 0.000000 Cl
0.500000 0.726076 0.000000 Cl
0.500000 0.273924 0.000000 Cl
0.500000 0.000000 0.273924 Cl
