Cs8 Tl4 Ag1 Au3 I24
1.0
12.140155 0.000000 0.000000
-0.000000 12.140155 0.000000
0.000000 0.000000 12.140155
Cs Tl Ag Au I
8 4 1 3 24
direct
0.750000 0.750000 0.750000 Cs
0.250000 0.250000 0.250000 Cs
0.750000 0.250000 0.250000 Cs
0.250000 0.750000 0.750000 Cs
0.250000 0.750000 0.250000 Cs
0.750000 0.250000 0.750000 Cs
0.250000 0.250000 0.750000 Cs
0.750000 0.750000 0.250000 Cs
0.000000 0.000000 0.000000 Tl
1.000000 0.500000 0.500000 Tl
0.500000 0.000000 0.500000 Tl
0.500000 0.500000 0.000000 Tl
0.500000 0.500000 0.500000 Ag
0.500000 0.000000 0.000000 Au
0.000000 0.000000 0.500000 Au
1.000000 0.500000 0.000000 Au
0.255763 0.000000 0.000000 I
0.500000 0.000000 0.755763 I
0.744237 0.000000 0.000000 I
0.500000 0.755763 0.000000 I
0.500000 0.244237 0.000000 I
0.500000 0.000000 0.244237 I
0.255763 0.500000 0.500000 I
0.500000 0.500000 0.255763 I
0.744237 0.500000 0.500000 I
0.500000 0.255763 0.500000 I
0.500000 0.744237 0.500000 I
0.500000 0.500000 0.744237 I
0.755763 0.000000 0.500000 I
0.000000 0.000000 0.255763 I
0.244237 0.000000 0.500000 I
0.000000 0.755763 0.500000 I
1.000000 0.244237 0.500000 I
0.000000 0.000000 0.744237 I
0.755763 0.500000 0.000000 I
1.000000 0.500000 0.755763 I
0.244237 0.500000 0.000000 I
1.000000 0.255763 0.000000 I
1.000000 0.744237 0.000000 I
1.000000 0.500000 0.244237 I
