Cs8 Tl4 Ag2 Au2 Br24
1.0
11.333351 0.000000 0.000000
-0.000000 11.333351 0.000000
0.000000 0.000000 11.333351
Cs Tl Ag Au Br
8 4 2 2 24
direct
0.750000 0.750000 0.750000 Cs
0.250000 0.250000 0.250000 Cs
0.750000 0.250000 0.250000 Cs
0.250000 0.750000 0.750000 Cs
0.250000 0.750000 0.250000 Cs
0.750000 0.250000 0.750000 Cs
0.250000 0.250000 0.750000 Cs
0.750000 0.750000 0.250000 Cs
0.000000 0.000000 0.000000 Tl
0.000000 0.500000 0.500000 Tl
0.500000 0.000000 0.500000 Tl
0.500000 0.500000 0.000000 Tl
0.500000 0.500000 0.500000 Ag
0.000000 0.500000 0.000000 Ag
0.500000 0.000000 0.000000 Au
0.000000 0.000000 0.500000 Au
0.251926 0.000000 0.000000 Br
0.500000 0.000000 0.751926 Br
0.748074 0.000000 0.000000 Br
0.500000 0.751926 0.000000 Br
0.500000 0.248074 0.000000 Br
0.500000 0.000000 0.248074 Br
0.251926 0.500000 0.500000 Br
0.500000 0.500000 0.251926 Br
0.748074 0.500000 0.500000 Br
0.500000 0.251926 0.500000 Br
0.500000 0.748074 0.500000 Br
0.500000 0.500000 0.748074 Br
0.751926 0.000000 0.500000 Br
0.000000 0.000000 0.251926 Br
0.248074 0.000000 0.500000 Br
1.000000 0.751926 0.500000 Br
0.000000 0.248074 0.500000 Br
0.000000 0.000000 0.748074 Br
0.751926 0.500000 0.000000 Br
0.000000 0.500000 0.751926 Br
0.248074 0.500000 0.000000 Br
1.000000 0.251926 0.000000 Br
1.000000 0.748074 0.000000 Br
0.000000 0.500000 0.248074 Br
