Cs8 Tl4 In2 Sb2 Cl24
1.0
11.355989 0.000000 0.000000
-0.000000 11.355989 0.000000
0.000000 0.000000 11.355989
Cs Tl In Sb Cl
8 4 2 2 24
direct
0.750000 0.250000 0.250000 Cs
0.250000 0.750000 0.750000 Cs
0.750000 0.750000 0.750000 Cs
0.250000 0.250000 0.250000 Cs
0.250000 0.250000 0.750000 Cs
0.750000 0.750000 0.250000 Cs
0.250000 0.750000 0.250000 Cs
0.750000 0.250000 0.750000 Cs
0.500000 0.500000 0.500000 Tl
0.500000 0.000000 1.000000 Tl
1.000000 0.500000 1.000000 Tl
0.000000 0.000000 0.500000 Tl
0.500000 0.500000 1.000000 In
0.500000 0.000000 0.500000 In
1.000000 0.500000 0.500000 Sb
0.000000 0.000000 0.000000 Sb
0.232710 0.500000 0.500000 Cl
0.500000 0.500000 0.232710 Cl
0.767290 0.500000 0.500000 Cl
0.500000 0.232710 0.500000 Cl
0.500000 0.767290 0.500000 Cl
0.500000 0.500000 0.767290 Cl
0.232710 0.000000 0.000000 Cl
0.500000 0.000000 0.732710 Cl
0.767290 0.000000 0.000000 Cl
0.500000 0.732710 0.000000 Cl
0.500000 0.267290 1.000000 Cl
0.500000 0.000000 0.267290 Cl
0.732710 0.500000 0.000000 Cl
1.000000 0.500000 0.732710 Cl
0.267290 0.500000 0.000000 Cl
0.000000 0.232710 0.000000 Cl
1.000000 0.767290 0.000000 Cl
1.000000 0.500000 0.267290 Cl
0.732710 0.000000 0.500000 Cl
0.000000 0.000000 0.232710 Cl
0.267290 0.000000 0.500000 Cl
1.000000 0.732710 0.500000 Cl
0.000000 0.267290 0.500000 Cl
0.000000 0.000000 0.767290 Cl
