Cs8 In4 Ag3 Au1 Br24
1.0
11.222647 0.000000 0.000000
-0.000000 11.222647 0.000000
0.000000 0.000000 11.222647
Cs In Ag Au Br
8 4 3 1 24
direct
0.750000 0.750000 0.750000 Cs
0.250000 0.250000 0.250000 Cs
0.750000 0.250000 0.250000 Cs
0.250000 0.750000 0.750000 Cs
0.250000 0.750000 0.250000 Cs
0.750000 0.250000 0.750000 Cs
0.250000 0.250000 0.750000 Cs
0.750000 0.750000 0.250000 Cs
0.000000 0.000000 0.000000 In
1.000000 0.500000 0.500000 In
0.500000 0.000000 0.500000 In
0.500000 0.500000 1.000000 In
0.500000 0.000000 1.000000 Ag
0.500000 0.500000 0.500000 Ag
1.000000 0.500000 0.000000 Ag
0.000000 0.000000 0.500000 Au
0.247494 0.000000 1.000000 Br
0.500000 0.000000 0.747494 Br
0.752506 0.000000 0.000000 Br
0.500000 0.747494 0.000000 Br
0.500000 0.252506 0.000000 Br
0.500000 0.000000 0.252506 Br
0.247494 0.500000 0.500000 Br
0.500000 0.500000 0.247494 Br
0.752506 0.500000 0.500000 Br
0.500000 0.247494 0.500000 Br
0.500000 0.752506 0.500000 Br
0.500000 0.500000 0.752506 Br
0.747494 0.000000 0.500000 Br
0.000000 0.000000 0.247494 Br
0.252506 0.000000 0.500000 Br
0.000000 0.747494 0.500000 Br
1.000000 0.252506 0.500000 Br
0.000000 0.000000 0.752506 Br
0.747494 0.500000 1.000000 Br
1.000000 0.500000 0.747494 Br
0.252506 0.500000 1.000000 Br
1.000000 0.247494 0.000000 Br
0.000000 0.752506 0.000000 Br
1.000000 0.500000 0.252506 Br
