Cs8 Cu3 Ag1 Bi4 I24
1.0
12.049953 0.000000 0.000000
-0.000000 12.049953 0.000000
0.000000 0.000000 12.049953
Cs Cu Ag Bi I
8 3 1 4 24
direct
0.250000 0.250000 0.250000 Cs
0.250000 0.250000 0.750000 Cs
0.250000 0.750000 0.750000 Cs
0.250000 0.750000 0.250000 Cs
0.750000 0.250000 0.750000 Cs
0.750000 0.250000 0.250000 Cs
0.750000 0.750000 0.250000 Cs
0.750000 0.750000 0.750000 Cs
0.500000 0.000000 0.000000 Cu
0.500000 0.500000 0.500000 Cu
0.000000 0.000000 0.500000 Cu
1.000000 0.500000 0.000000 Ag
0.000000 0.000000 0.000000 Bi
1.000000 0.500000 0.500000 Bi
0.500000 0.000000 0.500000 Bi
0.500000 0.500000 0.000000 Bi
0.500000 0.000000 0.760163 I
0.260163 0.000000 1.000000 I
0.500000 0.000000 0.239837 I
0.500000 0.239837 1.000000 I
1.000000 0.260163 0.000000 I
0.739837 0.000000 0.000000 I
0.500000 0.500000 0.260163 I
0.260163 0.500000 0.500000 I
0.500000 0.500000 0.739837 I
0.500000 0.739837 0.500000 I
1.000000 0.760163 0.500000 I
0.739837 0.500000 0.500000 I
0.000000 0.000000 0.260163 I
0.760163 0.000000 0.500000 I
0.000000 0.000000 0.739837 I
1.000000 0.239837 0.500000 I
0.500000 0.260163 0.500000 I
0.239837 0.000000 0.500000 I
1.000000 0.500000 0.760163 I
0.760163 0.500000 0.000000 I
1.000000 0.500000 0.239837 I
1.000000 0.739837 0.000000 I
0.500000 0.760163 0.000000 I
0.239837 0.500000 0.000000 I
