Cs8 In4 As4 Br1 Cl23
1.0
11.046786 0.000000 0.000000
-0.000000 11.046786 0.000000
0.000000 0.000000 11.046786
Cs In As Br Cl
8 4 4 1 23
direct
0.250000 0.250000 0.250000 Cs
0.750000 0.750000 0.750000 Cs
0.250000 0.750000 0.750000 Cs
0.750000 0.250000 0.250000 Cs
0.750000 0.250000 0.750000 Cs
0.250000 0.750000 0.250000 Cs
0.750000 0.750000 0.250000 Cs
0.250000 0.250000 0.750000 Cs
0.000000 0.500000 0.500000 In
0.000000 0.000000 0.000000 In
0.500000 0.500000 0.000000 In
0.500000 0.000000 0.500000 In
0.500000 0.500000 0.500000 As
0.500000 0.000000 0.000000 As
0.000000 0.500000 0.000000 As
0.000000 0.000000 0.500000 As
0.770009 0.000000 0.500000 Br
0.729991 0.500000 0.500000 Cl
0.000000 0.500000 0.229991 Cl
0.270009 0.500000 0.500000 Cl
0.000000 0.229991 0.500000 Cl
0.000000 0.770009 0.500000 Cl
0.000000 0.500000 0.770009 Cl
0.729991 0.000000 0.000000 Cl
0.000000 0.000000 0.729991 Cl
0.270009 0.000000 0.000000 Cl
1.000000 0.729991 0.000000 Cl
1.000000 0.270009 0.000000 Cl
0.000000 0.000000 0.270009 Cl
0.229991 0.500000 0.000000 Cl
0.500000 0.500000 0.729991 Cl
0.770009 0.500000 0.000000 Cl
0.500000 0.229991 0.000000 Cl
0.500000 0.770009 0.000000 Cl
0.500000 0.500000 0.270009 Cl
0.229991 0.000000 0.500000 Cl
0.500000 0.000000 0.229991 Cl
0.500000 0.729991 0.500000 Cl
0.500000 0.270009 0.500000 Cl
0.500000 0.000000 0.770009 Cl
