Cs8 Ga3 Sb1 Au4 Br24
1.0
11.071514 0.000000 0.000000
-0.000000 11.071514 0.000000
0.000000 0.000000 11.071514
Cs Ga Sb Au Br
8 3 1 4 24
direct
0.750000 0.750000 0.750000 Cs
0.250000 0.250000 0.250000 Cs
0.750000 0.250000 0.250000 Cs
0.250000 0.750000 0.750000 Cs
0.250000 0.750000 0.250000 Cs
0.750000 0.250000 0.750000 Cs
0.250000 0.250000 0.750000 Cs
0.750000 0.750000 0.250000 Cs
0.000000 0.000000 0.000000 Ga
1.000000 0.500000 0.500000 Ga
0.500000 0.000000 0.500000 Ga
0.500000 0.500000 0.000000 Sb
0.500000 0.000000 0.000000 Au
0.500000 0.500000 0.500000 Au
0.000000 0.000000 0.500000 Au
1.000000 0.500000 0.000000 Au
0.241756 0.000000 0.000000 Br
0.500000 0.000000 0.741756 Br
0.758244 0.000000 0.000000 Br
0.500000 0.741756 0.000000 Br
0.500000 0.258244 0.000000 Br
0.500000 0.000000 0.258244 Br
0.241756 0.500000 0.500000 Br
0.500000 0.500000 0.241756 Br
0.758244 0.500000 0.500000 Br
0.500000 0.241756 0.500000 Br
0.500000 0.758244 0.500000 Br
0.500000 0.500000 0.758244 Br
0.741756 0.000000 0.500000 Br
0.000000 0.000000 0.241756 Br
0.258244 0.000000 0.500000 Br
1.000000 0.741756 0.500000 Br
1.000000 0.258244 0.500000 Br
0.000000 0.000000 0.758244 Br
0.741756 0.500000 0.000000 Br
1.000000 0.500000 0.741756 Br
0.258244 0.500000 0.000000 Br
0.000000 0.241756 0.000000 Br
1.000000 0.758244 0.000000 Br
1.000000 0.500000 0.258244 Br
