Cs8 Tl1 In4 Sb3 Cl24
1.0
11.337879 0.000000 0.000000
-0.000000 11.337879 0.000000
0.000000 0.000000 11.337879
Cs Tl In Sb Cl
8 1 4 3 24
direct
0.750000 0.250000 0.250000 Cs
0.250000 0.750000 0.750000 Cs
0.750000 0.750000 0.750000 Cs
0.250000 0.250000 0.250000 Cs
0.250000 0.250000 0.750000 Cs
0.750000 0.750000 0.250000 Cs
0.250000 0.750000 0.250000 Cs
0.750000 0.250000 0.750000 Cs
0.500000 0.500000 0.500000 Tl
0.000000 0.500000 0.500000 In
0.000000 0.000000 0.000000 In
0.500000 0.500000 0.000000 In
0.500000 0.000000 0.500000 In
0.500000 0.000000 0.000000 Sb
0.000000 0.500000 0.000000 Sb
0.000000 0.000000 0.500000 Sb
0.226978 0.500000 0.500000 Cl
0.500000 0.500000 0.226978 Cl
0.773022 0.500000 0.500000 Cl
0.500000 0.226978 0.500000 Cl
0.500000 0.773022 0.500000 Cl
0.500000 0.500000 0.773022 Cl
0.226978 0.000000 0.000000 Cl
0.500000 0.000000 0.726978 Cl
0.773022 0.000000 0.000000 Cl
0.500000 0.726978 0.000000 Cl
0.500000 0.273022 1.000000 Cl
0.500000 0.000000 0.273022 Cl
0.726978 0.500000 0.000000 Cl
0.000000 0.500000 0.726978 Cl
0.273022 0.500000 1.000000 Cl
0.000000 0.226978 0.000000 Cl
1.000000 0.773022 0.000000 Cl
0.000000 0.500000 0.273022 Cl
0.726978 0.000000 0.500000 Cl
0.000000 0.000000 0.226978 Cl
0.273022 0.000000 0.500000 Cl
1.000000 0.726978 0.500000 Cl
1.000000 0.273022 0.500000 Cl
0.000000 0.000000 0.773022 Cl
