Cs8 Tl2 As4 Au2 I24
1.0
12.114155 0.000000 0.000000
-0.000000 12.114155 0.000000
0.000000 0.000000 12.114155
Cs Tl As Au I
8 2 4 2 24
direct
0.750000 0.750000 0.750000 Cs
0.250000 0.250000 0.250000 Cs
0.750000 0.250000 0.250000 Cs
0.250000 0.750000 0.750000 Cs
0.250000 0.750000 0.250000 Cs
0.750000 0.250000 0.750000 Cs
0.250000 0.250000 0.750000 Cs
0.750000 0.750000 0.250000 Cs
0.500000 0.000000 1.000000 Tl
0.000000 0.500000 1.000000 Tl
0.000000 0.000000 0.000000 As
0.000000 0.500000 0.500000 As
0.500000 0.000000 0.500000 As
0.500000 0.500000 1.000000 As
0.500000 0.500000 0.500000 Au
0.000000 0.000000 0.500000 Au
0.247724 0.000000 1.000000 I
0.500000 0.000000 0.747724 I
0.752276 0.000000 1.000000 I
0.500000 0.747724 1.000000 I
0.500000 0.252276 0.000000 I
0.500000 0.000000 0.252276 I
0.247724 0.500000 0.500000 I
0.500000 0.500000 0.247724 I
0.752276 0.500000 0.500000 I
0.500000 0.247724 0.500000 I
0.500000 0.752276 0.500000 I
0.500000 0.500000 0.752276 I
0.747724 0.000000 0.500000 I
0.000000 0.000000 0.247724 I
0.252276 0.000000 0.500000 I
0.000000 0.747724 0.500000 I
0.000000 0.252276 0.500000 I
0.000000 0.000000 0.752276 I
0.747724 0.500000 1.000000 I
0.000000 0.500000 0.747724 I
0.252276 0.500000 1.000000 I
1.000000 0.247724 1.000000 I
0.000000 0.752276 0.000000 I
0.000000 0.500000 0.252276 I
