Cs8 Tl3 In1 Bi4 I24
1.0
12.812870 0.000000 0.000000
-0.000000 12.812870 0.000000
0.000000 0.000000 12.812870
Cs Tl In Bi I
8 3 1 4 24
direct
0.750000 0.250000 0.250000 Cs
0.250000 0.750000 0.750000 Cs
0.750000 0.750000 0.750000 Cs
0.250000 0.250000 0.250000 Cs
0.250000 0.250000 0.750000 Cs
0.750000 0.750000 0.250000 Cs
0.250000 0.750000 0.250000 Cs
0.750000 0.250000 0.750000 Cs
0.500000 0.000000 0.000000 Tl
1.000000 0.500000 0.000000 Tl
0.000000 0.000000 0.500000 Tl
0.500000 0.500000 0.500000 In
1.000000 0.500000 0.500000 Bi
0.000000 0.000000 0.000000 Bi
0.500000 0.500000 0.000000 Bi
0.500000 0.000000 0.500000 Bi
0.240568 0.500000 0.500000 I
0.500000 0.500000 0.240568 I
0.759432 0.500000 0.500000 I
0.500000 0.240568 0.500000 I
0.500000 0.759432 0.500000 I
0.500000 0.500000 0.759432 I
0.240568 0.000000 0.000000 I
0.500000 0.000000 0.740568 I
0.759432 0.000000 0.000000 I
0.500000 0.740568 0.000000 I
0.500000 0.259432 1.000000 I
0.500000 0.000000 0.259432 I
0.740568 0.500000 0.000000 I
1.000000 0.500000 0.740568 I
0.259432 0.500000 0.000000 I
1.000000 0.240568 0.000000 I
1.000000 0.759432 0.000000 I
1.000000 0.500000 0.259432 I
0.740568 0.000000 0.500000 I
0.000000 0.000000 0.240568 I
0.259432 0.000000 0.500000 I
1.000000 0.740568 0.500000 I
1.000000 0.259432 0.500000 I
0.000000 0.000000 0.759432 I
