Cs8 Sc4 Ag4 Br1 Cl23
1.0
10.631095 0.000000 0.000000
-0.000000 10.631095 0.000000
0.000000 0.000000 10.631095
Cs Sc Ag Br Cl
8 4 4 1 23
direct
0.750000 0.750000 0.750000 Cs
0.250000 0.250000 0.250000 Cs
0.750000 0.250000 0.250000 Cs
0.250000 0.750000 0.750000 Cs
0.250000 0.750000 0.250000 Cs
0.750000 0.250000 0.750000 Cs
0.250000 0.250000 0.750000 Cs
0.750000 0.750000 0.250000 Cs
0.000000 0.000000 0.000000 Sc
1.000000 0.500000 0.500000 Sc
0.500000 0.000000 0.500000 Sc
0.500000 0.500000 1.000000 Sc
0.500000 0.000000 1.000000 Ag
0.500000 0.500000 0.500000 Ag
0.000000 0.000000 0.500000 Ag
1.000000 0.500000 0.000000 Ag
1.000000 0.763047 0.000000 Br
0.236953 0.000000 1.000000 Cl
0.500000 0.000000 0.736953 Cl
0.763047 0.000000 0.000000 Cl
0.500000 0.736953 0.000000 Cl
0.500000 0.263047 1.000000 Cl
0.500000 0.000000 0.263047 Cl
0.236953 0.500000 0.500000 Cl
0.500000 0.500000 0.236953 Cl
0.763047 0.500000 0.500000 Cl
0.500000 0.236953 0.500000 Cl
0.500000 0.763047 0.500000 Cl
0.500000 0.500000 0.763047 Cl
0.736953 0.000000 0.500000 Cl
0.000000 0.000000 0.236953 Cl
0.263047 0.000000 0.500000 Cl
0.000000 0.736953 0.500000 Cl
1.000000 0.263047 0.500000 Cl
0.000000 0.000000 0.763047 Cl
0.736953 0.500000 0.000000 Cl
1.000000 0.500000 0.736953 Cl
0.263047 0.500000 0.000000 Cl
1.000000 0.236953 0.000000 Cl
1.000000 0.500000 0.263047 Cl
