Cs8 In3 Cu1 Bi4 Br24
1.0
11.747550 0.000000 0.000000
-0.000000 11.747550 0.000000
0.000000 0.000000 11.747550
Cs In Cu Bi Br
8 3 1 4 24
direct
0.750000 0.750000 0.750000 Cs
0.250000 0.250000 0.250000 Cs
0.750000 0.250000 0.250000 Cs
0.250000 0.750000 0.750000 Cs
0.250000 0.750000 0.250000 Cs
0.750000 0.250000 0.750000 Cs
0.250000 0.250000 0.750000 Cs
0.750000 0.750000 0.250000 Cs
0.500000 0.000000 0.000000 In
0.000000 0.000000 0.500000 In
0.000000 0.500000 0.000000 In
0.500000 0.500000 0.500000 Cu
0.000000 0.000000 0.000000 Bi
0.000000 0.500000 0.500000 Bi
0.500000 0.000000 0.500000 Bi
0.500000 0.500000 0.000000 Bi
0.241536 0.000000 0.000000 Br
0.500000 0.000000 0.741536 Br
0.758464 0.000000 0.000000 Br
0.500000 0.741536 0.000000 Br
0.500000 0.258464 0.000000 Br
0.500000 0.000000 0.258464 Br
0.241536 0.500000 0.500000 Br
0.500000 0.500000 0.241536 Br
0.758464 0.500000 0.500000 Br
0.500000 0.241536 0.500000 Br
0.500000 0.758464 0.500000 Br
0.500000 0.500000 0.758464 Br
0.741536 0.000000 0.500000 Br
0.000000 0.000000 0.241536 Br
0.258464 0.000000 0.500000 Br
1.000000 0.741536 0.500000 Br
1.000000 0.258464 0.500000 Br
0.000000 0.000000 0.758464 Br
0.741536 0.500000 1.000000 Br
0.000000 0.500000 0.741536 Br
0.258464 0.500000 0.000000 Br
1.000000 0.241536 0.000000 Br
1.000000 0.758464 0.000000 Br
0.000000 0.500000 0.258464 Br
