Cs8 Ag4 Bi4 I18 Br6
1.0
12.052826 0.000000 0.000000
-0.000000 12.052826 0.000000
0.000000 0.000000 12.052826
Cs Ag Bi I Br
8 4 4 18 6
direct
0.250000 0.250000 0.250000 Cs
0.250000 0.250000 0.750000 Cs
0.250000 0.750000 0.750000 Cs
0.250000 0.750000 0.250000 Cs
0.750000 0.250000 0.750000 Cs
0.750000 0.250000 0.250000 Cs
0.750000 0.750000 0.250000 Cs
0.750000 0.750000 0.750000 Cs
1.000000 0.500000 0.000000 Ag
0.000000 0.000000 0.500000 Ag
0.500000 0.500000 0.500000 Ag
0.500000 0.000000 0.000000 Ag
0.000000 0.000000 0.000000 Bi
1.000000 0.500000 0.500000 Bi
0.500000 0.000000 0.500000 Bi
0.500000 0.500000 0.000000 Bi
0.500000 0.000000 0.753060 I
0.746940 0.000000 1.000000 I
1.000000 0.253060 0.000000 I
0.500000 0.246940 0.000000 I
0.253060 0.000000 1.000000 I
0.500000 0.500000 0.253060 I
0.500000 0.500000 0.746940 I
0.000000 0.753060 0.500000 I
0.500000 0.746940 0.500000 I
0.000000 0.000000 0.253060 I
0.246940 0.000000 0.500000 I
0.000000 0.000000 0.746940 I
0.500000 0.253060 0.500000 I
0.000000 0.246940 0.500000 I
0.753060 0.000000 0.500000 I
0.246940 0.500000 0.000000 I
1.000000 0.500000 0.246940 I
0.753060 0.500000 1.000000 I
0.500000 0.000000 0.246940 Br
0.746940 0.500000 0.500000 Br
0.253060 0.500000 0.500000 Br
1.000000 0.500000 0.753060 Br
0.500000 0.753060 0.000000 Br
1.000000 0.746940 0.000000 Br
