Cs8 Cu4 Sb4 I1 Br23
1.0
11.119678 0.000000 0.000000
-0.000000 11.119678 0.000000
0.000000 0.000000 11.119678
Cs Cu Sb I Br
8 4 4 1 23
direct
0.750000 0.250000 0.750000 Cs
0.250000 0.250000 0.750000 Cs
0.750000 0.750000 0.250000 Cs
0.250000 0.750000 0.250000 Cs
0.250000 0.250000 0.250000 Cs
0.750000 0.250000 0.250000 Cs
0.250000 0.750000 0.750000 Cs
0.750000 0.750000 0.750000 Cs
0.500000 0.500000 0.500000 Cu
0.500000 0.000000 0.000000 Cu
1.000000 0.500000 0.000000 Cu
0.000000 0.000000 0.500000 Cu
0.000000 0.000000 0.000000 Sb
1.000000 0.500000 0.500000 Sb
0.500000 0.000000 0.500000 Sb
0.500000 0.500000 0.000000 Sb
0.500000 0.757298 0.000000 I
0.500000 0.500000 0.742702 Br
0.257298 0.500000 0.500000 Br
0.500000 0.000000 0.757298 Br
0.500000 0.257298 0.500000 Br
0.500000 0.242702 0.000000 Br
0.742702 0.000000 0.000000 Br
0.500000 0.000000 0.242702 Br
0.257298 0.000000 0.000000 Br
0.500000 0.500000 0.257298 Br
0.500000 0.742702 0.500000 Br
0.742702 0.500000 0.500000 Br
1.000000 0.500000 0.242702 Br
0.757298 0.500000 0.000000 Br
0.000000 0.000000 0.257298 Br
1.000000 0.257298 0.000000 Br
1.000000 0.242702 0.500000 Br
0.242702 0.000000 0.500000 Br
0.000000 0.000000 0.742702 Br
0.757298 0.000000 0.500000 Br
1.000000 0.500000 0.757298 Br
1.000000 0.757298 0.500000 Br
1.000000 0.742702 0.000000 Br
0.242702 0.500000 0.000000 Br
