Cs8 Bi1 Sb3 Au4 Cl24
1.0
10.827661 0.000000 0.000000
-0.000000 10.827661 0.000000
0.000000 0.000000 10.827661
Cs Bi Sb Au Cl
8 1 3 4 24
direct
0.750000 0.750000 0.750000 Cs
0.250000 0.250000 0.250000 Cs
0.750000 0.250000 0.250000 Cs
0.250000 0.750000 0.750000 Cs
0.250000 0.750000 0.250000 Cs
0.750000 0.250000 0.750000 Cs
0.250000 0.250000 0.750000 Cs
0.750000 0.750000 0.250000 Cs
0.500000 0.000000 0.500000 Bi
0.000000 0.000000 0.000000 Sb
0.000000 0.500000 0.500000 Sb
0.500000 0.500000 0.000000 Sb
0.500000 0.000000 0.000000 Au
0.500000 0.500000 0.500000 Au
0.000000 0.000000 0.500000 Au
0.000000 0.500000 0.000000 Au
0.250280 0.000000 1.000000 Cl
0.500000 0.000000 0.750280 Cl
0.749720 0.000000 1.000000 Cl
0.500000 0.750280 0.000000 Cl
0.500000 0.249720 1.000000 Cl
0.500000 0.000000 0.249720 Cl
0.250280 0.500000 0.500000 Cl
0.500000 0.500000 0.250280 Cl
0.749720 0.500000 0.500000 Cl
0.500000 0.250280 0.500000 Cl
0.500000 0.749720 0.500000 Cl
0.500000 0.500000 0.749720 Cl
0.750280 0.000000 0.500000 Cl
0.000000 0.000000 0.250280 Cl
0.249720 0.000000 0.500000 Cl
1.000000 0.750280 0.500000 Cl
0.000000 0.249720 0.500000 Cl
0.000000 0.000000 0.749720 Cl
0.750280 0.500000 0.000000 Cl
0.000000 0.500000 0.750280 Cl
0.249720 0.500000 1.000000 Cl
1.000000 0.250280 0.000000 Cl
1.000000 0.749720 0.000000 Cl
0.000000 0.500000 0.249720 Cl
