Cs8 In2 Cu4 Bi2 Br24
1.0
11.056788 0.000000 0.000000
-0.000000 11.056788 0.000000
0.000000 0.000000 11.056788
Cs In Cu Bi Br
8 2 4 2 24
direct
0.250000 0.250000 0.250000 Cs
0.250000 0.250000 0.750000 Cs
0.250000 0.750000 0.750000 Cs
0.250000 0.750000 0.250000 Cs
0.750000 0.250000 0.750000 Cs
0.750000 0.250000 0.250000 Cs
0.750000 0.750000 0.250000 Cs
0.750000 0.750000 0.750000 Cs
0.000000 0.500000 0.500000 In
0.500000 0.000000 0.500000 In
0.500000 0.000000 0.000000 Cu
0.500000 0.500000 0.500000 Cu
0.000000 0.000000 0.500000 Cu
0.000000 0.500000 0.000000 Cu
0.000000 0.000000 0.000000 Bi
0.500000 0.500000 0.000000 Bi
0.500000 0.000000 0.759723 Br
0.259723 0.000000 1.000000 Br
0.500000 0.000000 0.240277 Br
0.500000 0.240277 0.000000 Br
1.000000 0.259723 0.000000 Br
0.740277 0.000000 0.000000 Br
0.500000 0.500000 0.259723 Br
0.259723 0.500000 0.500000 Br
0.500000 0.500000 0.740277 Br
0.500000 0.740277 0.500000 Br
1.000000 0.759723 0.500000 Br
0.740277 0.500000 0.500000 Br
0.000000 0.000000 0.259723 Br
0.759723 0.000000 0.500000 Br
0.000000 0.000000 0.740277 Br
0.000000 0.240277 0.500000 Br
0.500000 0.259723 0.500000 Br
0.240277 0.000000 0.500000 Br
0.000000 0.500000 0.759723 Br
0.759723 0.500000 0.000000 Br
0.000000 0.500000 0.240277 Br
1.000000 0.740277 0.000000 Br
0.500000 0.759723 0.000000 Br
0.240277 0.500000 0.000000 Br
