Cs8 Cu4 Sb1 As3 Cl24
1.0
10.269882 0.000000 0.000000
-0.000000 10.269882 0.000000
0.000000 0.000000 10.269882
Cs Cu Sb As Cl
8 4 1 3 24
direct
0.250000 0.250000 0.250000 Cs
0.750000 0.750000 0.750000 Cs
0.250000 0.750000 0.750000 Cs
0.750000 0.250000 0.250000 Cs
0.750000 0.250000 0.750000 Cs
0.250000 0.750000 0.250000 Cs
0.750000 0.750000 0.250000 Cs
0.250000 0.250000 0.750000 Cs
0.500000 0.000000 0.000000 Cu
0.500000 0.500000 0.500000 Cu
0.000000 0.000000 0.500000 Cu
0.000000 0.500000 0.000000 Cu
0.000000 0.000000 0.000000 Sb
0.000000 0.500000 0.500000 As
0.500000 0.000000 0.500000 As
0.500000 0.500000 0.000000 As
0.500000 0.000000 0.243149 Cl
0.256851 0.000000 1.000000 Cl
0.500000 0.000000 0.756851 Cl
0.500000 0.756851 1.000000 Cl
0.500000 0.243149 0.000000 Cl
0.743149 0.000000 0.000000 Cl
0.500000 0.500000 0.743149 Cl
0.256851 0.500000 0.500000 Cl
0.500000 0.500000 0.256851 Cl
0.500000 0.256851 0.500000 Cl
0.500000 0.743149 0.500000 Cl
0.743149 0.500000 0.500000 Cl
0.000000 0.000000 0.743149 Cl
0.756851 0.000000 0.500000 Cl
0.000000 0.000000 0.256851 Cl
0.000000 0.756851 0.500000 Cl
0.000000 0.243149 0.500000 Cl
0.243149 0.000000 0.500000 Cl
0.000000 0.500000 0.243149 Cl
0.756851 0.500000 1.000000 Cl
0.000000 0.500000 0.756851 Cl
0.000000 0.256851 0.000000 Cl
1.000000 0.743149 0.000000 Cl
0.243149 0.500000 0.000000 Cl
