Cs8 Tl4 Ga1 Sb3 I24
1.0
12.702103 0.000000 0.000000
-0.000000 12.702103 0.000000
0.000000 0.000000 12.702103
Cs Tl Ga Sb I
8 4 1 3 24
direct
0.750000 0.750000 0.750000 Cs
0.250000 0.250000 0.250000 Cs
0.750000 0.250000 0.250000 Cs
0.250000 0.750000 0.750000 Cs
0.250000 0.750000 0.250000 Cs
0.750000 0.250000 0.750000 Cs
0.250000 0.250000 0.750000 Cs
0.750000 0.750000 0.250000 Cs
0.500000 0.000000 1.000000 Tl
0.500000 0.500000 0.500000 Tl
0.000000 0.000000 0.500000 Tl
1.000000 0.500000 0.000000 Tl
1.000000 0.500000 0.500000 Ga
0.000000 0.000000 0.000000 Sb
0.500000 0.000000 0.500000 Sb
0.500000 0.500000 1.000000 Sb
0.229899 0.000000 0.000000 I
0.500000 0.000000 0.729899 I
0.770101 0.000000 0.000000 I
0.500000 0.729899 0.000000 I
0.500000 0.270101 0.000000 I
0.500000 0.000000 0.270101 I
0.229899 0.500000 0.500000 I
0.500000 0.500000 0.229899 I
0.770101 0.500000 0.500000 I
0.500000 0.229899 0.500000 I
0.500000 0.770101 0.500000 I
0.500000 0.500000 0.770101 I
0.729899 0.000000 0.500000 I
0.000000 0.000000 0.229899 I
0.270101 0.000000 0.500000 I
1.000000 0.729899 0.500000 I
1.000000 0.270101 0.500000 I
0.000000 0.000000 0.770101 I
0.729899 0.500000 0.000000 I
1.000000 0.500000 0.729899 I
0.270101 0.500000 0.000000 I
0.000000 0.229899 0.000000 I
1.000000 0.770101 0.000000 I
1.000000 0.500000 0.270101 I
