Cs8 Sc4 Tl1 Ag3 Cl24
1.0
10.774522 0.000000 0.000000
-0.000000 10.774522 0.000000
0.000000 0.000000 10.774522
Cs Sc Tl Ag Cl
8 4 1 3 24
direct
0.750000 0.750000 0.750000 Cs
0.250000 0.250000 0.250000 Cs
0.750000 0.250000 0.250000 Cs
0.250000 0.750000 0.750000 Cs
0.250000 0.750000 0.250000 Cs
0.750000 0.250000 0.750000 Cs
0.250000 0.250000 0.750000 Cs
0.750000 0.750000 0.250000 Cs
0.000000 0.000000 0.000000 Sc
0.000000 0.500000 0.500000 Sc
0.500000 0.000000 0.500000 Sc
0.500000 0.500000 0.000000 Sc
0.500000 0.500000 0.500000 Tl
0.500000 0.000000 0.000000 Ag
0.000000 0.000000 0.500000 Ag
0.000000 0.500000 0.000000 Ag
0.236953 0.000000 0.000000 Cl
0.500000 0.000000 0.736953 Cl
0.763047 0.000000 0.000000 Cl
0.500000 0.736953 1.000000 Cl
0.500000 0.263047 0.000000 Cl
0.500000 0.000000 0.263047 Cl
0.236953 0.500000 0.500000 Cl
0.500000 0.500000 0.236953 Cl
0.763047 0.500000 0.500000 Cl
0.500000 0.236953 0.500000 Cl
0.500000 0.763047 0.500000 Cl
0.500000 0.500000 0.763047 Cl
0.736953 0.000000 0.500000 Cl
0.000000 0.000000 0.236953 Cl
0.263047 0.000000 0.500000 Cl
1.000000 0.736953 0.500000 Cl
0.000000 0.263047 0.500000 Cl
0.000000 0.000000 0.763047 Cl
0.736953 0.500000 1.000000 Cl
0.000000 0.500000 0.736953 Cl
0.263047 0.500000 0.000000 Cl
0.000000 0.236953 1.000000 Cl
1.000000 0.763047 0.000000 Cl
0.000000 0.500000 0.263047 Cl
