Cs8 Ag2 As4 Au2 Br24
1.0
11.085850 0.000000 0.000000
-0.000000 11.085850 0.000000
0.000000 0.000000 11.085850
Cs Ag As Au Br
8 2 4 2 24
direct
0.750000 0.750000 0.750000 Cs
0.250000 0.250000 0.250000 Cs
0.750000 0.250000 0.250000 Cs
0.250000 0.750000 0.750000 Cs
0.250000 0.750000 0.250000 Cs
0.750000 0.250000 0.750000 Cs
0.250000 0.250000 0.750000 Cs
0.750000 0.750000 0.250000 Cs
0.000000 0.000000 0.500000 Ag
0.000000 0.500000 1.000000 Ag
0.000000 0.000000 0.000000 As
0.000000 0.500000 0.500000 As
0.500000 0.000000 0.500000 As
0.500000 0.500000 1.000000 As
0.500000 0.000000 1.000000 Au
0.500000 0.500000 0.500000 Au
0.244396 0.000000 1.000000 Br
0.500000 0.000000 0.744396 Br
0.755604 0.000000 1.000000 Br
0.500000 0.744396 0.000000 Br
0.500000 0.255604 1.000000 Br
0.500000 0.000000 0.255604 Br
0.244396 0.500000 0.500000 Br
0.500000 0.500000 0.244396 Br
0.755604 0.500000 0.500000 Br
0.500000 0.244396 0.500000 Br
0.500000 0.755604 0.500000 Br
0.500000 0.500000 0.755604 Br
0.744396 0.000000 0.500000 Br
0.000000 0.000000 0.244396 Br
0.255604 0.000000 0.500000 Br
1.000000 0.744396 0.500000 Br
0.000000 0.255604 0.500000 Br
0.000000 0.000000 0.755604 Br
0.744396 0.500000 1.000000 Br
0.000000 0.500000 0.744396 Br
0.255604 0.500000 0.000000 Br
0.000000 0.244396 0.000000 Br
0.000000 0.755604 1.000000 Br
0.000000 0.500000 0.255604 Br
