Cs8 Tl1 Ag3 Bi4 I24
1.0
12.285025 0.000000 0.000000
-0.000000 12.285025 0.000000
0.000000 0.000000 12.285025
Cs Tl Ag Bi I
8 1 3 4 24
direct
0.750000 0.250000 0.250000 Cs
0.250000 0.750000 0.750000 Cs
0.750000 0.750000 0.750000 Cs
0.250000 0.250000 0.250000 Cs
0.250000 0.250000 0.750000 Cs
0.750000 0.750000 0.250000 Cs
0.250000 0.750000 0.250000 Cs
0.750000 0.250000 0.750000 Cs
0.500000 0.000000 1.000000 Tl
0.500000 0.500000 0.500000 Ag
1.000000 0.500000 0.000000 Ag
0.000000 0.000000 0.500000 Ag
1.000000 0.500000 0.500000 Bi
0.000000 0.000000 0.000000 Bi
0.500000 0.500000 1.000000 Bi
0.500000 0.000000 0.500000 Bi
0.240568 0.500000 0.500000 I
0.500000 0.500000 0.240568 I
0.759432 0.500000 0.500000 I
0.500000 0.240568 0.500000 I
0.500000 0.759432 0.500000 I
0.500000 0.500000 0.759432 I
0.240568 0.000000 0.000000 I
0.500000 0.000000 0.740568 I
0.759432 0.000000 0.000000 I
0.500000 0.740568 0.000000 I
0.500000 0.259432 0.000000 I
0.500000 0.000000 0.259432 I
0.740568 0.500000 0.000000 I
1.000000 0.500000 0.740568 I
0.259432 0.500000 0.000000 I
1.000000 0.240568 0.000000 I
1.000000 0.759432 0.000000 I
1.000000 0.500000 0.259432 I
0.740568 0.000000 0.500000 I
0.000000 0.000000 0.240568 I
0.259432 0.000000 0.500000 I
1.000000 0.740568 0.500000 I
1.000000 0.259432 0.500000 I
0.000000 0.000000 0.759432 I
