Cs8 Tl8 Br22 Cl2
1.0
11.844194 0.000000 0.000000
-0.000000 11.844194 0.000000
0.000000 0.000000 11.844194
Cs Tl Br Cl
8 8 22 2
direct
0.750000 0.750000 0.750000 Cs
0.250000 0.250000 0.250000 Cs
0.750000 0.250000 0.250000 Cs
0.250000 0.750000 0.750000 Cs
0.250000 0.750000 0.250000 Cs
0.750000 0.250000 0.750000 Cs
0.250000 0.250000 0.750000 Cs
0.750000 0.750000 0.250000 Cs
0.500000 0.000000 1.000000 Tl
0.000000 0.000000 0.000000 Tl
0.500000 0.500000 0.500000 Tl
0.000000 0.500000 0.500000 Tl
0.000000 0.000000 0.500000 Tl
0.500000 0.000000 0.500000 Tl
0.000000 0.500000 1.000000 Tl
0.500000 0.500000 1.000000 Tl
0.232736 0.000000 1.000000 Br
0.500000 0.000000 0.732736 Br
0.767264 0.000000 1.000000 Br
0.500000 0.732736 0.000000 Br
0.500000 0.267264 0.000000 Br
0.500000 0.000000 0.267264 Br
0.232736 0.500000 0.500000 Br
0.500000 0.500000 0.232736 Br
0.767264 0.500000 0.500000 Br
0.500000 0.232736 0.500000 Br
0.500000 0.767264 0.500000 Br
0.500000 0.500000 0.767264 Br
0.732736 0.000000 0.500000 Br
0.000000 0.000000 0.232736 Br
0.000000 0.732736 0.500000 Br
0.000000 0.267264 0.500000 Br
0.000000 0.000000 0.767264 Br
0.000000 0.500000 0.732736 Br
0.267264 0.500000 0.000000 Br
0.000000 0.232736 0.000000 Br
0.000000 0.767264 0.000000 Br
0.000000 0.500000 0.267264 Br
0.267264 0.000000 0.500000 Cl
0.732736 0.500000 1.000000 Cl
