Cs8 Tl3 Cu4 Sb1 Br24
1.0
11.075819 0.000000 0.000000
-0.000000 11.075819 0.000000
0.000000 0.000000 11.075819
Cs Tl Cu Sb Br
8 3 4 1 24
direct
0.750000 0.750000 0.750000 Cs
0.250000 0.250000 0.250000 Cs
0.750000 0.250000 0.250000 Cs
0.250000 0.750000 0.750000 Cs
0.250000 0.750000 0.250000 Cs
0.750000 0.250000 0.750000 Cs
0.250000 0.250000 0.750000 Cs
0.750000 0.750000 0.250000 Cs
0.000000 0.000000 0.000000 Tl
1.000000 0.500000 0.500000 Tl
0.500000 0.500000 1.000000 Tl
0.500000 0.000000 1.000000 Cu
0.500000 0.500000 0.500000 Cu
0.000000 0.000000 0.500000 Cu
1.000000 0.500000 1.000000 Cu
0.500000 0.000000 0.500000 Sb
0.263140 0.000000 1.000000 Br
0.500000 0.000000 0.763140 Br
0.736860 0.000000 1.000000 Br
0.500000 0.763140 1.000000 Br
0.500000 0.236860 1.000000 Br
0.500000 0.000000 0.236860 Br
0.263140 0.500000 0.500000 Br
0.500000 0.500000 0.263140 Br
0.736860 0.500000 0.500000 Br
0.500000 0.263140 0.500000 Br
0.500000 0.736860 0.500000 Br
0.500000 0.500000 0.736860 Br
0.763140 0.000000 0.500000 Br
0.000000 0.000000 0.263140 Br
0.236860 0.000000 0.500000 Br
1.000000 0.763140 0.500000 Br
1.000000 0.236860 0.500000 Br
0.000000 0.000000 0.736860 Br
0.763140 0.500000 1.000000 Br
1.000000 0.500000 0.763140 Br
0.236860 0.500000 1.000000 Br
0.000000 0.263140 1.000000 Br
0.000000 0.736860 1.000000 Br
1.000000 0.500000 0.236860 Br
