Cs8 Ga2 Cu4 Sb2 Cl24
1.0
10.333883 0.000000 0.000000
-0.000000 10.333883 0.000000
0.000000 0.000000 10.333883
Cs Ga Cu Sb Cl
8 2 4 2 24
direct
0.250000 0.250000 0.250000 Cs
0.750000 0.750000 0.750000 Cs
0.250000 0.750000 0.750000 Cs
0.750000 0.250000 0.250000 Cs
0.750000 0.250000 0.750000 Cs
0.250000 0.750000 0.250000 Cs
0.750000 0.750000 0.250000 Cs
0.250000 0.250000 0.750000 Cs
0.000000 0.500000 0.500000 Ga
0.500000 0.500000 1.000000 Ga
0.500000 0.000000 1.000000 Cu
0.500000 0.500000 0.500000 Cu
0.000000 0.000000 0.500000 Cu
0.000000 0.500000 1.000000 Cu
0.000000 0.000000 0.000000 Sb
0.500000 0.000000 0.500000 Sb
0.500000 0.000000 0.243149 Cl
0.256851 0.000000 1.000000 Cl
0.500000 0.000000 0.756851 Cl
0.500000 0.756851 1.000000 Cl
0.500000 0.243149 1.000000 Cl
0.743149 0.000000 1.000000 Cl
0.500000 0.500000 0.743149 Cl
0.256851 0.500000 0.500000 Cl
0.500000 0.500000 0.256851 Cl
0.500000 0.256851 0.500000 Cl
0.500000 0.743149 0.500000 Cl
0.743149 0.500000 0.500000 Cl
0.000000 0.000000 0.743149 Cl
0.756851 0.000000 0.500000 Cl
0.000000 0.000000 0.256851 Cl
1.000000 0.756851 0.500000 Cl
0.000000 0.243149 0.500000 Cl
0.243149 0.000000 0.500000 Cl
0.000000 0.500000 0.243149 Cl
0.756851 0.500000 0.000000 Cl
0.000000 0.500000 0.756851 Cl
1.000000 0.256851 0.000000 Cl
0.000000 0.743149 1.000000 Cl
0.243149 0.500000 1.000000 Cl
