pymatgen generated KPOINTS with grid density = 323 / atom
0
Monkhorst
2 2 2
