Cs8 In1 Cu3 Bi4 Cl24
1.0
10.675927 0.000000 0.000000
-0.000000 10.675927 0.000000
0.000000 0.000000 10.675927
Cs In Cu Bi Cl
8 1 3 4 24
direct
0.750000 0.250000 0.250000 Cs
0.250000 0.750000 0.750000 Cs
0.750000 0.750000 0.750000 Cs
0.250000 0.250000 0.250000 Cs
0.250000 0.250000 0.750000 Cs
0.750000 0.750000 0.250000 Cs
0.250000 0.750000 0.250000 Cs
0.750000 0.250000 0.750000 Cs
0.500000 0.500000 0.500000 In
0.500000 0.000000 1.000000 Cu
1.000000 0.500000 0.000000 Cu
0.000000 0.000000 0.500000 Cu
1.000000 0.500000 0.500000 Bi
0.000000 0.000000 0.000000 Bi
0.500000 0.500000 1.000000 Bi
0.500000 0.000000 0.500000 Bi
0.238046 0.500000 0.500000 Cl
0.500000 0.500000 0.238046 Cl
0.761954 0.500000 0.500000 Cl
0.500000 0.238046 0.500000 Cl
0.500000 0.761954 0.500000 Cl
0.500000 0.500000 0.761954 Cl
0.238046 0.000000 0.000000 Cl
0.500000 0.000000 0.738046 Cl
0.761954 0.000000 0.000000 Cl
0.500000 0.738046 1.000000 Cl
0.500000 0.261954 0.000000 Cl
0.500000 0.000000 0.261954 Cl
0.738046 0.500000 1.000000 Cl
1.000000 0.500000 0.738046 Cl
0.261954 0.500000 0.000000 Cl
0.000000 0.238046 0.000000 Cl
1.000000 0.761954 0.000000 Cl
1.000000 0.500000 0.261954 Cl
0.738046 0.000000 0.500000 Cl
0.000000 0.000000 0.238046 Cl
0.261954 0.000000 0.500000 Cl
0.000000 0.738046 0.500000 Cl
1.000000 0.261954 0.500000 Cl
0.000000 0.000000 0.761954 Cl
