Cs8 Cu1 Ag3 As4 Cl24
1.0
10.560764 0.000000 0.000000
-0.000000 10.560764 0.000000
0.000000 0.000000 10.560764
Cs Cu Ag As Cl
8 1 3 4 24
direct
0.250000 0.750000 0.250000 Cs
0.750000 0.250000 0.750000 Cs
0.250000 0.250000 0.750000 Cs
0.750000 0.750000 0.250000 Cs
0.750000 0.750000 0.750000 Cs
0.250000 0.250000 0.250000 Cs
0.750000 0.250000 0.250000 Cs
0.250000 0.750000 0.750000 Cs
0.500000 0.500000 0.500000 Cu
0.000000 0.000000 0.500000 Ag
1.000000 0.500000 0.000000 Ag
0.500000 0.000000 1.000000 Ag
0.500000 0.000000 0.500000 As
0.500000 0.500000 1.000000 As
0.000000 0.000000 0.000000 As
1.000000 0.500000 0.500000 As
0.749957 0.000000 0.500000 Cl
0.000000 0.000000 0.249957 Cl
0.250043 0.000000 0.500000 Cl
0.000000 0.749957 0.500000 Cl
1.000000 0.250043 0.500000 Cl
0.000000 0.000000 0.750043 Cl
0.749957 0.500000 0.000000 Cl
1.000000 0.500000 0.749957 Cl
0.250043 0.500000 0.000000 Cl
1.000000 0.249957 0.000000 Cl
0.000000 0.750043 0.000000 Cl
1.000000 0.500000 0.250043 Cl
0.249957 0.000000 0.000000 Cl
0.500000 0.000000 0.749957 Cl
0.750043 0.000000 0.000000 Cl
0.500000 0.749957 0.000000 Cl
0.500000 0.250043 1.000000 Cl
0.500000 0.000000 0.250043 Cl
0.249957 0.500000 0.500000 Cl
0.500000 0.500000 0.249957 Cl
0.750043 0.500000 0.500000 Cl
0.500000 0.249957 0.500000 Cl
0.500000 0.750043 0.500000 Cl
0.500000 0.500000 0.750043 Cl
