Cs8 Ga3 Ag4 Bi1 Cl24
1.0
10.583214 0.000000 0.000000
-0.000000 10.583214 0.000000
0.000000 0.000000 10.583214
Cs Ga Ag Bi Cl
8 3 4 1 24
direct
0.750000 0.750000 0.750000 Cs
0.250000 0.250000 0.250000 Cs
0.750000 0.250000 0.250000 Cs
0.250000 0.750000 0.750000 Cs
0.250000 0.750000 0.250000 Cs
0.750000 0.250000 0.750000 Cs
0.250000 0.250000 0.750000 Cs
0.750000 0.750000 0.250000 Cs
1.000000 0.500000 0.500000 Ga
0.500000 0.000000 0.500000 Ga
0.500000 0.500000 1.000000 Ga
0.500000 0.000000 1.000000 Ag
0.500000 0.500000 0.500000 Ag
0.000000 0.000000 0.500000 Ag
1.000000 0.500000 0.000000 Ag
0.000000 0.000000 0.000000 Bi
0.232697 0.000000 0.000000 Cl
0.500000 0.000000 0.732697 Cl
0.767303 0.000000 0.000000 Cl
0.500000 0.732697 0.000000 Cl
0.500000 0.267303 0.000000 Cl
0.500000 0.000000 0.267303 Cl
0.232697 0.500000 0.500000 Cl
0.500000 0.500000 0.232697 Cl
0.767303 0.500000 0.500000 Cl
0.500000 0.232697 0.500000 Cl
0.500000 0.767303 0.500000 Cl
0.500000 0.500000 0.767303 Cl
0.732697 0.000000 0.500000 Cl
0.000000 0.000000 0.232697 Cl
0.267303 0.000000 0.500000 Cl
0.000000 0.732697 0.500000 Cl
0.000000 0.267303 0.500000 Cl
0.000000 0.000000 0.767303 Cl
0.732697 0.500000 1.000000 Cl
1.000000 0.500000 0.732697 Cl
0.267303 0.500000 0.000000 Cl
0.000000 0.232697 1.000000 Cl
0.000000 0.767303 0.000000 Cl
1.000000 0.500000 0.267303 Cl
