Cs8 Tl4 In1 Cu3 Br24
1.0
11.284320 0.000000 0.000000
-0.000000 11.284320 0.000000
0.000000 0.000000 11.284320
Cs Tl In Cu Br
8 4 1 3 24
direct
0.750000 0.750000 0.750000 Cs
0.250000 0.250000 0.250000 Cs
0.750000 0.250000 0.250000 Cs
0.250000 0.750000 0.750000 Cs
0.250000 0.750000 0.250000 Cs
0.750000 0.250000 0.750000 Cs
0.250000 0.250000 0.750000 Cs
0.750000 0.750000 0.250000 Cs
0.000000 0.000000 0.000000 Tl
0.000000 0.500000 0.500000 Tl
0.500000 0.000000 0.500000 Tl
0.500000 0.500000 0.000000 Tl
0.500000 0.500000 0.500000 In
0.500000 0.000000 0.000000 Cu
0.000000 0.000000 0.500000 Cu
0.000000 0.500000 0.000000 Cu
0.263140 0.000000 0.000000 Br
0.500000 0.000000 0.763140 Br
0.736860 0.000000 0.000000 Br
0.500000 0.763140 0.000000 Br
0.500000 0.236860 0.000000 Br
0.500000 0.000000 0.236860 Br
0.263140 0.500000 0.500000 Br
0.500000 0.500000 0.263140 Br
0.736860 0.500000 0.500000 Br
0.500000 0.263140 0.500000 Br
0.500000 0.736860 0.500000 Br
0.500000 0.500000 0.736860 Br
0.763140 0.000000 0.500000 Br
0.000000 0.000000 0.263140 Br
0.236860 0.000000 0.500000 Br
1.000000 0.763140 0.500000 Br
0.000000 0.236860 0.500000 Br
0.000000 0.000000 0.736860 Br
0.763140 0.500000 1.000000 Br
0.000000 0.500000 0.763140 Br
0.236860 0.500000 0.000000 Br
0.000000 0.263140 0.000000 Br
1.000000 0.736860 0.000000 Br
0.000000 0.500000 0.236860 Br
