Cs8 In4 Bi4 I1 Br23
1.0
11.990835 0.000000 0.000000
-0.000000 11.990835 0.000000
0.000000 0.000000 11.990835
Cs In Bi I Br
8 4 4 1 23
direct
0.250000 0.750000 0.250000 Cs
0.750000 0.250000 0.750000 Cs
0.250000 0.250000 0.750000 Cs
0.750000 0.750000 0.250000 Cs
0.750000 0.750000 0.750000 Cs
0.250000 0.250000 0.250000 Cs
0.750000 0.250000 0.250000 Cs
0.250000 0.750000 0.750000 Cs
0.000000 0.000000 0.500000 In
1.000000 0.500000 0.000000 In
0.500000 0.000000 0.000000 In
0.500000 0.500000 0.500000 In
0.500000 0.000000 0.500000 Bi
0.500000 0.500000 0.000000 Bi
0.000000 0.000000 0.000000 Bi
1.000000 0.500000 0.500000 Bi
1.000000 0.500000 0.741536 I
0.741536 0.000000 0.500000 Br
0.000000 0.000000 0.241536 Br
0.258464 0.000000 0.500000 Br
1.000000 0.741536 0.500000 Br
1.000000 0.258464 0.500000 Br
0.000000 0.000000 0.758464 Br
0.741536 0.500000 0.000000 Br
0.258464 0.500000 0.000000 Br
1.000000 0.241536 0.000000 Br
1.000000 0.758464 0.000000 Br
1.000000 0.500000 0.258464 Br
0.241536 0.000000 0.000000 Br
0.500000 0.000000 0.741536 Br
0.758464 0.000000 0.000000 Br
0.500000 0.741536 0.000000 Br
0.500000 0.258464 0.000000 Br
0.500000 0.000000 0.258464 Br
0.241536 0.500000 0.500000 Br
0.500000 0.500000 0.241536 Br
0.758464 0.500000 0.500000 Br
0.500000 0.241536 0.500000 Br
0.500000 0.758464 0.500000 Br
0.500000 0.500000 0.758464 Br
