pymatgen generated KPOINTS with grid density = 295 / atom
0
Monkhorst
2 2 2
