Cs8 In8 Br12 Cl12
1.0
11.427393 0.000000 0.000000
-0.000000 11.427393 0.000000
0.000000 0.000000 11.427393
Cs In Br Cl
8 8 12 12
direct
0.750000 0.750000 0.750000 Cs
0.250000 0.250000 0.250000 Cs
0.750000 0.250000 0.250000 Cs
0.250000 0.750000 0.750000 Cs
0.250000 0.750000 0.250000 Cs
0.750000 0.250000 0.750000 Cs
0.250000 0.250000 0.750000 Cs
0.750000 0.750000 0.250000 Cs
0.500000 0.000000 1.000000 In
0.000000 0.000000 0.000000 In
0.500000 0.500000 0.500000 In
1.000000 0.500000 0.500000 In
0.000000 0.000000 0.500000 In
0.500000 0.000000 0.500000 In
1.000000 0.500000 0.000000 In
0.500000 0.500000 1.000000 In
0.765428 0.000000 0.000000 Br
0.500000 0.265428 1.000000 Br
0.234572 0.500000 0.500000 Br
0.000000 0.000000 0.234572 Br
0.265428 0.000000 0.500000 Br
0.000000 0.734572 0.500000 Br
0.000000 0.265428 0.500000 Br
0.000000 0.000000 0.765428 Br
0.265428 0.500000 1.000000 Br
1.000000 0.234572 0.000000 Br
0.000000 0.765428 0.000000 Br
1.000000 0.500000 0.265428 Br
0.234572 0.000000 0.000000 Cl
0.500000 0.000000 0.734572 Cl
0.500000 0.734572 0.000000 Cl
0.500000 0.000000 0.265428 Cl
0.500000 0.500000 0.234572 Cl
0.765428 0.500000 0.500000 Cl
0.500000 0.234572 0.500000 Cl
0.500000 0.765428 0.500000 Cl
0.500000 0.500000 0.765428 Cl
0.734572 0.000000 0.500000 Cl
0.734572 0.500000 0.000000 Cl
1.000000 0.500000 0.734572 Cl
