Cs8 Sc4 Tl3 In1 Cl24
1.0
11.191994 0.000000 0.000000
-0.000000 11.191994 0.000000
0.000000 0.000000 11.191994
Cs Sc Tl In Cl
8 4 3 1 24
direct
0.750000 0.750000 0.750000 Cs
0.250000 0.250000 0.250000 Cs
0.750000 0.250000 0.250000 Cs
0.250000 0.750000 0.750000 Cs
0.250000 0.750000 0.250000 Cs
0.750000 0.250000 0.750000 Cs
0.250000 0.250000 0.750000 Cs
0.750000 0.750000 0.250000 Cs
0.000000 0.000000 0.000000 Sc
0.000000 0.500000 0.500000 Sc
0.500000 0.000000 0.500000 Sc
0.500000 0.500000 0.000000 Sc
0.500000 0.500000 0.500000 Tl
0.000000 0.000000 0.500000 Tl
0.000000 0.500000 0.000000 Tl
0.500000 0.000000 0.000000 In
0.223625 0.000000 1.000000 Cl
0.500000 0.000000 0.723625 Cl
0.776375 0.000000 0.000000 Cl
0.500000 0.723625 1.000000 Cl
0.500000 0.276375 0.000000 Cl
0.500000 0.000000 0.276375 Cl
0.223625 0.500000 0.500000 Cl
0.500000 0.500000 0.223625 Cl
0.776375 0.500000 0.500000 Cl
0.500000 0.223625 0.500000 Cl
0.500000 0.776375 0.500000 Cl
0.500000 0.500000 0.776375 Cl
0.723625 0.000000 0.500000 Cl
0.000000 0.000000 0.223625 Cl
0.276375 0.000000 0.500000 Cl
0.000000 0.723625 0.500000 Cl
1.000000 0.276375 0.500000 Cl
0.000000 0.000000 0.776375 Cl
0.723625 0.500000 1.000000 Cl
0.000000 0.500000 0.723625 Cl
0.276375 0.500000 1.000000 Cl
0.000000 0.223625 0.000000 Cl
1.000000 0.776375 0.000000 Cl
0.000000 0.500000 0.276375 Cl
