Cs8 Sc4 Tl2 In2 Br24
1.0
11.720289 0.000000 0.000000
-0.000000 11.720289 0.000000
0.000000 0.000000 11.720289
Cs Sc Tl In Br
8 4 2 2 24
direct
0.750000 0.750000 0.750000 Cs
0.250000 0.250000 0.250000 Cs
0.750000 0.250000 0.250000 Cs
0.250000 0.750000 0.750000 Cs
0.250000 0.750000 0.250000 Cs
0.750000 0.250000 0.750000 Cs
0.250000 0.250000 0.750000 Cs
0.750000 0.750000 0.250000 Cs
0.000000 0.000000 0.000000 Sc
0.000000 0.500000 0.500000 Sc
0.500000 0.000000 0.500000 Sc
0.500000 0.500000 1.000000 Sc
0.000000 0.000000 0.500000 Tl
0.000000 0.500000 1.000000 Tl
0.500000 0.000000 1.000000 In
0.500000 0.500000 0.500000 In
0.228758 0.000000 1.000000 Br
0.500000 0.000000 0.728758 Br
0.771242 0.000000 0.000000 Br
0.500000 0.728758 0.000000 Br
0.500000 0.271242 1.000000 Br
0.500000 0.000000 0.271242 Br
0.228758 0.500000 0.500000 Br
0.500000 0.500000 0.228758 Br
0.771242 0.500000 0.500000 Br
0.500000 0.228758 0.500000 Br
0.500000 0.771242 0.500000 Br
0.500000 0.500000 0.771242 Br
0.728758 0.000000 0.500000 Br
0.000000 0.000000 0.228758 Br
0.271242 0.000000 0.500000 Br
0.000000 0.728758 0.500000 Br
0.000000 0.271242 0.500000 Br
0.000000 0.000000 0.771242 Br
0.728758 0.500000 1.000000 Br
0.000000 0.500000 0.728758 Br
0.271242 0.500000 1.000000 Br
0.000000 0.228758 1.000000 Br
0.000000 0.771242 0.000000 Br
0.000000 0.500000 0.271242 Br
