Cs8 Ga4 Au4 Br2 Cl22
1.0
10.443942 0.000000 0.000000
-0.000000 10.443942 0.000000
0.000000 0.000000 10.443942
Cs Ga Au Br Cl
8 4 4 2 22
direct
0.750000 0.750000 0.750000 Cs
0.250000 0.250000 0.250000 Cs
0.750000 0.250000 0.250000 Cs
0.250000 0.750000 0.750000 Cs
0.250000 0.750000 0.250000 Cs
0.750000 0.250000 0.750000 Cs
0.250000 0.250000 0.750000 Cs
0.750000 0.750000 0.250000 Cs
0.000000 0.000000 0.000000 Ga
0.000000 0.500000 0.500000 Ga
0.500000 0.000000 0.500000 Ga
0.500000 0.500000 1.000000 Ga
0.500000 0.000000 1.000000 Au
0.500000 0.500000 0.500000 Au
0.000000 0.000000 0.500000 Au
0.000000 0.500000 1.000000 Au
0.500000 0.500000 0.758244 Br
0.000000 0.741756 0.500000 Br
0.241756 0.000000 1.000000 Cl
0.500000 0.000000 0.741756 Cl
0.758244 0.000000 1.000000 Cl
0.500000 0.741756 0.000000 Cl
0.500000 0.258244 1.000000 Cl
0.500000 0.000000 0.258244 Cl
0.241756 0.500000 0.500000 Cl
0.500000 0.500000 0.241756 Cl
0.758244 0.500000 0.500000 Cl
0.500000 0.241756 0.500000 Cl
0.500000 0.758244 0.500000 Cl
0.741756 0.000000 0.500000 Cl
0.000000 0.000000 0.241756 Cl
0.258244 0.000000 0.500000 Cl
0.000000 0.258244 0.500000 Cl
0.000000 0.000000 0.758244 Cl
0.741756 0.500000 1.000000 Cl
0.000000 0.500000 0.741756 Cl
0.258244 0.500000 1.000000 Cl
0.000000 0.241756 1.000000 Cl
1.000000 0.758244 1.000000 Cl
0.000000 0.500000 0.258244 Cl
