Cs8 Ag4 As4 Br2 Cl22
1.0
10.603975 0.000000 0.000000
-0.000000 10.603975 0.000000
0.000000 0.000000 10.603975
Cs Ag As Br Cl
8 4 4 2 22
direct
0.250000 0.750000 0.250000 Cs
0.750000 0.250000 0.750000 Cs
0.250000 0.250000 0.750000 Cs
0.750000 0.750000 0.250000 Cs
0.750000 0.750000 0.750000 Cs
0.250000 0.250000 0.250000 Cs
0.750000 0.250000 0.250000 Cs
0.250000 0.750000 0.750000 Cs
0.000000 0.000000 0.500000 Ag
1.000000 0.500000 0.000000 Ag
0.500000 0.000000 0.000000 Ag
0.500000 0.500000 0.500000 Ag
0.500000 0.000000 0.500000 As
0.500000 0.500000 0.000000 As
0.000000 0.000000 0.000000 As
1.000000 0.500000 0.500000 As
0.742447 0.000000 0.500000 Br
0.742447 0.500000 0.000000 Br
0.000000 0.000000 0.242447 Cl
0.257553 0.000000 0.500000 Cl
1.000000 0.742447 0.500000 Cl
1.000000 0.257553 0.500000 Cl
0.000000 0.000000 0.757553 Cl
1.000000 0.500000 0.742447 Cl
0.257553 0.500000 0.000000 Cl
0.000000 0.242447 0.000000 Cl
0.000000 0.757553 1.000000 Cl
1.000000 0.500000 0.257553 Cl
0.242447 0.000000 1.000000 Cl
0.500000 0.000000 0.742447 Cl
0.757553 0.000000 1.000000 Cl
0.500000 0.742447 0.000000 Cl
0.500000 0.257553 1.000000 Cl
0.500000 0.000000 0.257553 Cl
0.242447 0.500000 0.500000 Cl
0.500000 0.500000 0.242447 Cl
0.757553 0.500000 0.500000 Cl
0.500000 0.242447 0.500000 Cl
0.500000 0.757553 0.500000 Cl
0.500000 0.500000 0.757553 Cl
