Cs8 In3 Cu1 Sb4 Cl24
1.0
11.303368 0.000000 0.000000
-0.000000 11.303368 0.000000
0.000000 0.000000 11.303368
Cs In Cu Sb Cl
8 3 1 4 24
direct
0.250000 0.250000 0.250000 Cs
0.750000 0.750000 0.750000 Cs
0.250000 0.750000 0.750000 Cs
0.750000 0.250000 0.250000 Cs
0.750000 0.250000 0.750000 Cs
0.250000 0.750000 0.250000 Cs
0.750000 0.750000 0.250000 Cs
0.250000 0.250000 0.750000 Cs
0.500000 0.500000 0.500000 In
0.000000 0.000000 0.500000 In
1.000000 0.500000 0.000000 In
0.500000 0.000000 1.000000 Cu
0.000000 0.000000 0.000000 Sb
1.000000 0.500000 0.500000 Sb
0.500000 0.000000 0.500000 Sb
0.500000 0.500000 1.000000 Sb
0.500000 0.000000 0.243149 Cl
0.256851 0.000000 1.000000 Cl
0.500000 0.000000 0.756851 Cl
0.500000 0.756851 0.000000 Cl
0.500000 0.243149 0.000000 Cl
0.743149 0.000000 0.000000 Cl
0.500000 0.500000 0.743149 Cl
0.256851 0.500000 0.500000 Cl
0.500000 0.500000 0.256851 Cl
0.500000 0.256851 0.500000 Cl
0.500000 0.743149 0.500000 Cl
0.743149 0.500000 0.500000 Cl
0.000000 0.000000 0.743149 Cl
0.756851 0.000000 0.500000 Cl
0.000000 0.000000 0.256851 Cl
1.000000 0.756851 0.500000 Cl
1.000000 0.243149 0.500000 Cl
0.243149 0.000000 0.500000 Cl
1.000000 0.500000 0.243149 Cl
0.756851 0.500000 0.000000 Cl
1.000000 0.500000 0.756851 Cl
0.000000 0.256851 1.000000 Cl
1.000000 0.743149 0.000000 Cl
0.243149 0.500000 0.000000 Cl
