Cs8 In1 Bi4 Au3 Br24
1.0
11.480536 0.000000 0.000000
-0.000000 11.480536 0.000000
0.000000 0.000000 11.480536
Cs In Bi Au Br
8 1 4 3 24
direct
0.250000 0.250000 0.250000 Cs
0.750000 0.750000 0.750000 Cs
0.250000 0.750000 0.750000 Cs
0.750000 0.250000 0.250000 Cs
0.750000 0.250000 0.750000 Cs
0.250000 0.750000 0.250000 Cs
0.750000 0.750000 0.250000 Cs
0.250000 0.250000 0.750000 Cs
0.500000 0.000000 0.500000 In
0.500000 0.500000 0.500000 Bi
0.500000 0.000000 0.000000 Bi
1.000000 0.500000 0.000000 Bi
0.000000 0.000000 0.500000 Bi
1.000000 0.500000 0.500000 Au
0.000000 0.000000 0.000000 Au
0.500000 0.500000 0.000000 Au
0.741536 0.500000 0.500000 Br
1.000000 0.500000 0.241536 Br
0.258464 0.500000 0.500000 Br
1.000000 0.241536 0.500000 Br
1.000000 0.758464 0.500000 Br
1.000000 0.500000 0.758464 Br
0.741536 0.000000 0.000000 Br
0.000000 0.000000 0.741536 Br
0.258464 0.000000 0.000000 Br
1.000000 0.741536 0.000000 Br
1.000000 0.258464 0.000000 Br
0.000000 0.000000 0.258464 Br
0.241536 0.500000 0.000000 Br
0.500000 0.500000 0.741536 Br
0.758464 0.500000 0.000000 Br
0.500000 0.241536 0.000000 Br
0.500000 0.758464 0.000000 Br
0.500000 0.500000 0.258464 Br
0.241536 0.000000 0.500000 Br
0.500000 0.000000 0.241536 Br
0.758464 0.000000 0.500000 Br
0.500000 0.741536 0.500000 Br
0.500000 0.258464 0.500000 Br
0.500000 0.000000 0.758464 Br
