Cs8 Sc4 In1 Au3 I24
1.0
11.948683 0.000000 0.000000
-0.000000 11.948683 0.000000
0.000000 0.000000 11.948683
Cs Sc In Au I
8 4 1 3 24
direct
0.750000 0.750000 0.750000 Cs
0.250000 0.250000 0.250000 Cs
0.750000 0.250000 0.250000 Cs
0.250000 0.750000 0.750000 Cs
0.250000 0.750000 0.250000 Cs
0.750000 0.250000 0.750000 Cs
0.250000 0.250000 0.750000 Cs
0.750000 0.750000 0.250000 Cs
0.000000 0.000000 0.000000 Sc
1.000000 0.500000 0.500000 Sc
0.500000 0.000000 0.500000 Sc
0.500000 0.500000 0.000000 Sc
0.000000 0.000000 0.500000 In
0.500000 0.000000 0.000000 Au
0.500000 0.500000 0.500000 Au
1.000000 0.500000 0.000000 Au
0.232317 0.000000 0.000000 I
0.500000 0.000000 0.732317 I
0.767683 0.000000 0.000000 I
0.500000 0.732317 0.000000 I
0.500000 0.267683 0.000000 I
0.500000 0.000000 0.267683 I
0.232317 0.500000 0.500000 I
0.500000 0.500000 0.232317 I
0.767683 0.500000 0.500000 I
0.500000 0.232317 0.500000 I
0.500000 0.767683 0.500000 I
0.500000 0.500000 0.767683 I
0.732317 0.000000 0.500000 I
0.000000 0.000000 0.232317 I
0.267683 0.000000 0.500000 I
1.000000 0.732317 0.500000 I
1.000000 0.267683 0.500000 I
0.000000 0.000000 0.767683 I
0.732317 0.500000 0.000000 I
1.000000 0.500000 0.732317 I
0.267683 0.500000 0.000000 I
1.000000 0.232317 0.000000 I
1.000000 0.767683 0.000000 I
1.000000 0.500000 0.267683 I
