Cs8 In3 Sb1 Au4 I24
1.0
11.988963 0.000000 0.000000
-0.000000 11.988963 0.000000
0.000000 0.000000 11.988963
Cs In Sb Au I
8 3 1 4 24
direct
0.750000 0.750000 0.750000 Cs
0.250000 0.250000 0.250000 Cs
0.750000 0.250000 0.250000 Cs
0.250000 0.750000 0.750000 Cs
0.250000 0.750000 0.250000 Cs
0.750000 0.250000 0.750000 Cs
0.250000 0.250000 0.750000 Cs
0.750000 0.750000 0.250000 Cs
0.000000 0.000000 0.000000 In
1.000000 0.500000 0.500000 In
0.500000 0.000000 0.500000 In
0.500000 0.500000 0.000000 Sb
0.500000 0.000000 0.000000 Au
0.500000 0.500000 0.500000 Au
0.000000 0.000000 0.500000 Au
1.000000 0.500000 0.000000 Au
0.252885 0.000000 0.000000 I
0.500000 0.000000 0.752885 I
0.747115 0.000000 0.000000 I
0.500000 0.752885 0.000000 I
0.500000 0.247115 0.000000 I
0.500000 0.000000 0.247115 I
0.252885 0.500000 0.500000 I
0.500000 0.500000 0.252885 I
0.747115 0.500000 0.500000 I
0.500000 0.252885 0.500000 I
0.500000 0.747115 0.500000 I
0.500000 0.500000 0.747115 I
0.752885 0.000000 0.500000 I
0.000000 0.000000 0.252885 I
0.247115 0.000000 0.500000 I
1.000000 0.752885 0.500000 I
1.000000 0.247115 0.500000 I
0.000000 0.000000 0.747115 I
0.752885 0.500000 0.000000 I
1.000000 0.500000 0.752885 I
0.247115 0.500000 0.000000 I
1.000000 0.252885 0.000000 I
1.000000 0.747115 0.000000 I
1.000000 0.500000 0.247115 I
