Cs8 Sc4 Tl3 Ag1 Cl24
1.0
11.177118 0.000000 0.000000
-0.000000 11.177118 0.000000
0.000000 0.000000 11.177118
Cs Sc Tl Ag Cl
8 4 3 1 24
direct
0.750000 0.750000 0.750000 Cs
0.250000 0.250000 0.250000 Cs
0.750000 0.250000 0.250000 Cs
0.250000 0.750000 0.750000 Cs
0.250000 0.750000 0.250000 Cs
0.750000 0.250000 0.750000 Cs
0.250000 0.250000 0.750000 Cs
0.750000 0.750000 0.250000 Cs
0.000000 0.000000 0.000000 Sc
0.000000 0.500000 0.500000 Sc
0.500000 0.000000 0.500000 Sc
0.500000 0.500000 1.000000 Sc
0.500000 0.000000 1.000000 Tl
0.000000 0.000000 0.500000 Tl
0.000000 0.500000 1.000000 Tl
0.500000 0.500000 0.500000 Ag
0.236953 0.000000 0.000000 Cl
0.500000 0.000000 0.736953 Cl
0.763047 0.000000 0.000000 Cl
0.500000 0.736953 1.000000 Cl
0.500000 0.263047 0.000000 Cl
0.500000 0.000000 0.263047 Cl
0.236953 0.500000 0.500000 Cl
0.500000 0.500000 0.236953 Cl
0.763047 0.500000 0.500000 Cl
0.500000 0.236953 0.500000 Cl
0.500000 0.763047 0.500000 Cl
0.500000 0.500000 0.763047 Cl
0.736953 0.000000 0.500000 Cl
0.000000 0.000000 0.236953 Cl
0.263047 0.000000 0.500000 Cl
0.000000 0.736953 0.500000 Cl
0.000000 0.263047 0.500000 Cl
0.000000 0.000000 0.763047 Cl
0.736953 0.500000 1.000000 Cl
0.000000 0.500000 0.736953 Cl
0.263047 0.500000 0.000000 Cl
0.000000 0.236953 0.000000 Cl
0.000000 0.763047 0.000000 Cl
0.000000 0.500000 0.263047 Cl
