Cs8 Tl4 Bi4 I6 Br18
1.0
12.314617 0.000000 0.000000
-0.000000 12.314617 0.000000
0.000000 0.000000 12.314617
Cs Tl Bi I Br
8 4 4 6 18
direct
0.750000 0.750000 0.750000 Cs
0.250000 0.250000 0.250000 Cs
0.750000 0.250000 0.250000 Cs
0.250000 0.750000 0.750000 Cs
0.250000 0.750000 0.250000 Cs
0.750000 0.250000 0.750000 Cs
0.250000 0.250000 0.750000 Cs
0.750000 0.750000 0.250000 Cs
0.500000 0.000000 1.000000 Tl
0.500000 0.500000 0.500000 Tl
0.000000 0.000000 0.500000 Tl
0.000000 0.500000 1.000000 Tl
0.000000 0.000000 0.000000 Bi
0.000000 0.500000 0.500000 Bi
0.500000 0.000000 0.500000 Bi
0.500000 0.500000 1.000000 Bi
0.500000 0.262198 0.000000 I
0.000000 0.262198 0.500000 I
0.737802 0.500000 1.000000 I
0.262198 0.500000 0.000000 I
0.000000 0.237802 1.000000 I
0.000000 0.500000 0.262198 I
0.237802 0.000000 1.000000 Br
0.500000 0.000000 0.737802 Br
0.762198 0.000000 1.000000 Br
0.500000 0.737802 1.000000 Br
0.500000 0.000000 0.262198 Br
0.237802 0.500000 0.500000 Br
0.500000 0.500000 0.237802 Br
0.762198 0.500000 0.500000 Br
0.500000 0.237802 0.500000 Br
0.500000 0.762198 0.500000 Br
0.500000 0.500000 0.762198 Br
0.737802 0.000000 0.500000 Br
0.000000 0.000000 0.237802 Br
0.262198 0.000000 0.500000 Br
0.000000 0.737802 0.500000 Br
0.000000 0.000000 0.762198 Br
0.000000 0.500000 0.737802 Br
0.000000 0.762198 1.000000 Br
