Cs8 Cu4 Bi3 Sb1 Cl24
1.0
10.597464 0.000000 0.000000
-0.000000 10.597464 0.000000
0.000000 0.000000 10.597464
Cs Cu Bi Sb Cl
8 4 3 1 24
direct
0.250000 0.250000 0.750000 Cs
0.750000 0.750000 0.250000 Cs
0.250000 0.750000 0.250000 Cs
0.750000 0.250000 0.750000 Cs
0.750000 0.250000 0.250000 Cs
0.250000 0.750000 0.750000 Cs
0.750000 0.750000 0.750000 Cs
0.250000 0.250000 0.250000 Cs
0.000000 0.500000 0.000000 Cu
0.000000 0.000000 0.500000 Cu
0.500000 0.500000 0.500000 Cu
0.500000 0.000000 0.000000 Cu
0.500000 0.500000 0.000000 Bi
0.500000 0.000000 0.500000 Bi
0.000000 0.500000 0.500000 Bi
0.000000 0.000000 0.000000 Sb
0.759135 0.500000 0.000000 Cl
0.000000 0.500000 0.759135 Cl
0.240865 0.500000 0.000000 Cl
0.000000 0.259135 0.000000 Cl
1.000000 0.740865 0.000000 Cl
0.000000 0.500000 0.240865 Cl
0.759135 0.000000 0.500000 Cl
0.000000 0.000000 0.259135 Cl
0.240865 0.000000 0.500000 Cl
0.000000 0.759135 0.500000 Cl
1.000000 0.240865 0.500000 Cl
0.000000 0.000000 0.740865 Cl
0.259135 0.500000 0.500000 Cl
0.500000 0.500000 0.259135 Cl
0.740865 0.500000 0.500000 Cl
0.500000 0.259135 0.500000 Cl
0.500000 0.740865 0.500000 Cl
0.500000 0.500000 0.740865 Cl
0.259135 0.000000 0.000000 Cl
0.500000 0.000000 0.759135 Cl
0.740865 0.000000 0.000000 Cl
0.500000 0.759135 0.000000 Cl
0.500000 0.240865 0.000000 Cl
0.500000 0.000000 0.240865 Cl
