Cs8 Sc4 In1 Ag3 I24
1.0
11.979583 0.000000 0.000000
-0.000000 11.979583 0.000000
0.000000 0.000000 11.979583
Cs Sc In Ag I
8 4 1 3 24
direct
0.750000 0.750000 0.750000 Cs
0.250000 0.250000 0.250000 Cs
0.750000 0.250000 0.250000 Cs
0.250000 0.750000 0.750000 Cs
0.250000 0.750000 0.250000 Cs
0.750000 0.250000 0.750000 Cs
0.250000 0.250000 0.750000 Cs
0.750000 0.750000 0.250000 Cs
0.000000 0.000000 0.000000 Sc
1.000000 0.500000 0.500000 Sc
0.500000 0.000000 0.500000 Sc
0.500000 0.500000 1.000000 Sc
1.000000 0.500000 0.000000 In
0.500000 0.000000 1.000000 Ag
0.500000 0.500000 0.500000 Ag
0.000000 0.000000 0.500000 Ag
0.232317 0.000000 1.000000 I
0.500000 0.000000 0.732317 I
0.767683 0.000000 0.000000 I
0.500000 0.732317 0.000000 I
0.500000 0.267683 0.000000 I
0.500000 0.000000 0.267683 I
0.232317 0.500000 0.500000 I
0.500000 0.500000 0.232317 I
0.767683 0.500000 0.500000 I
0.500000 0.232317 0.500000 I
0.500000 0.767683 0.500000 I
0.500000 0.500000 0.767683 I
0.732317 0.000000 0.500000 I
0.000000 0.000000 0.232317 I
0.267683 0.000000 0.500000 I
1.000000 0.732317 0.500000 I
1.000000 0.267683 0.500000 I
0.000000 0.000000 0.767683 I
0.732317 0.500000 1.000000 I
1.000000 0.500000 0.732317 I
0.267683 0.500000 1.000000 I
0.000000 0.232317 0.000000 I
1.000000 0.767683 0.000000 I
1.000000 0.500000 0.267683 I
