Cs8 In4 Ga1 Sb3 Br24
1.0
11.731031 0.000000 0.000000
-0.000000 11.731031 0.000000
0.000000 0.000000 11.731031
Cs In Ga Sb Br
8 4 1 3 24
direct
0.250000 0.750000 0.250000 Cs
0.750000 0.250000 0.750000 Cs
0.250000 0.250000 0.750000 Cs
0.750000 0.750000 0.250000 Cs
0.750000 0.750000 0.750000 Cs
0.250000 0.250000 0.250000 Cs
0.750000 0.250000 0.250000 Cs
0.250000 0.750000 0.750000 Cs
0.000000 0.000000 0.500000 In
1.000000 0.500000 0.000000 In
0.500000 0.000000 0.000000 In
0.500000 0.500000 0.500000 In
1.000000 0.500000 0.500000 Ga
0.500000 0.000000 0.500000 Sb
0.500000 0.500000 0.000000 Sb
0.000000 0.000000 0.000000 Sb
0.739455 0.000000 0.500000 Br
0.000000 0.000000 0.239455 Br
0.260545 0.000000 0.500000 Br
1.000000 0.739455 0.500000 Br
1.000000 0.260545 0.500000 Br
0.000000 0.000000 0.760545 Br
0.739455 0.500000 0.000000 Br
1.000000 0.500000 0.739455 Br
0.260545 0.500000 0.000000 Br
1.000000 0.239455 0.000000 Br
1.000000 0.760545 0.000000 Br
1.000000 0.500000 0.260545 Br
0.239455 0.000000 0.000000 Br
0.500000 0.000000 0.739455 Br
0.760545 0.000000 0.000000 Br
0.500000 0.739455 0.000000 Br
0.500000 0.260545 0.000000 Br
0.500000 0.000000 0.260545 Br
0.239455 0.500000 0.500000 Br
0.500000 0.500000 0.239455 Br
0.760545 0.500000 0.500000 Br
0.500000 0.239455 0.500000 Br
0.500000 0.760545 0.500000 Br
0.500000 0.500000 0.760545 Br
