Cs8 In4 Ga4 Br18 Cl6
1.0
11.311803 0.000000 0.000000
-0.000000 11.311803 0.000000
0.000000 0.000000 11.311803
Cs In Ga Br Cl
8 4 4 18 6
direct
0.750000 0.250000 0.250000 Cs
0.250000 0.750000 0.750000 Cs
0.750000 0.750000 0.750000 Cs
0.250000 0.250000 0.250000 Cs
0.250000 0.250000 0.750000 Cs
0.750000 0.750000 0.250000 Cs
0.250000 0.750000 0.250000 Cs
0.750000 0.250000 0.750000 Cs
0.500000 0.500000 0.500000 In
0.500000 0.000000 0.000000 In
1.000000 0.500000 0.000000 In
0.000000 0.000000 0.500000 In
1.000000 0.500000 0.500000 Ga
0.000000 0.000000 0.000000 Ga
0.500000 0.500000 0.000000 Ga
0.500000 0.000000 0.500000 Ga
0.500000 0.500000 0.261067 Br
0.738933 0.500000 0.500000 Br
0.500000 0.261067 0.500000 Br
0.500000 0.738933 0.500000 Br
0.261067 0.000000 0.000000 Br
0.500000 0.000000 0.761067 Br
0.738933 0.000000 0.000000 Br
0.500000 0.761067 0.000000 Br
0.500000 0.238933 0.000000 Br
0.500000 0.000000 0.238933 Br
0.238933 0.500000 0.000000 Br
0.000000 0.261067 0.000000 Br
0.761067 0.000000 0.500000 Br
0.000000 0.000000 0.261067 Br
0.238933 0.000000 0.500000 Br
1.000000 0.761067 0.500000 Br
1.000000 0.238933 0.500000 Br
0.000000 0.000000 0.738933 Br
0.261067 0.500000 0.500000 Cl
0.500000 0.500000 0.738933 Cl
0.761067 0.500000 0.000000 Cl
1.000000 0.500000 0.761067 Cl
1.000000 0.738933 0.000000 Cl
1.000000 0.500000 0.238933 Cl
