Cs8 In2 Ga2 Ag4 Br24
1.0
11.107086 0.000000 0.000000
-0.000000 11.107086 0.000000
0.000000 0.000000 11.107086
Cs In Ga Ag Br
8 2 2 4 24
direct
0.750000 0.750000 0.750000 Cs
0.250000 0.250000 0.250000 Cs
0.750000 0.250000 0.250000 Cs
0.250000 0.750000 0.750000 Cs
0.250000 0.750000 0.250000 Cs
0.750000 0.250000 0.750000 Cs
0.250000 0.250000 0.750000 Cs
0.750000 0.750000 0.250000 Cs
1.000000 0.500000 0.500000 In
0.500000 0.000000 0.500000 In
0.000000 0.000000 0.000000 Ga
0.500000 0.500000 0.000000 Ga
0.500000 0.000000 0.000000 Ag
0.500000 0.500000 0.500000 Ag
0.000000 0.000000 0.500000 Ag
1.000000 0.500000 0.000000 Ag
0.237409 0.000000 0.000000 Br
0.500000 0.000000 0.737409 Br
0.762591 0.000000 0.000000 Br
0.500000 0.737409 1.000000 Br
0.500000 0.262591 0.000000 Br
0.500000 0.000000 0.262591 Br
0.237409 0.500000 0.500000 Br
0.500000 0.500000 0.237409 Br
0.762591 0.500000 0.500000 Br
0.500000 0.237409 0.500000 Br
0.500000 0.762591 0.500000 Br
0.500000 0.500000 0.762591 Br
0.737409 0.000000 0.500000 Br
0.000000 0.000000 0.237409 Br
0.262591 0.000000 0.500000 Br
0.000000 0.737409 0.500000 Br
0.000000 0.262591 0.500000 Br
0.000000 0.000000 0.762591 Br
0.737409 0.500000 1.000000 Br
1.000000 0.500000 0.737409 Br
0.262591 0.500000 0.000000 Br
1.000000 0.237409 1.000000 Br
1.000000 0.762591 0.000000 Br
1.000000 0.500000 0.262591 Br
