Cs8 Ga3 Bi1 Au4 I24
1.0
11.886775 0.000000 0.000000
-0.000000 11.886775 0.000000
0.000000 0.000000 11.886775
Cs Ga Bi Au I
8 3 1 4 24
direct
0.750000 0.750000 0.750000 Cs
0.250000 0.250000 0.250000 Cs
0.750000 0.250000 0.250000 Cs
0.250000 0.750000 0.750000 Cs
0.250000 0.750000 0.250000 Cs
0.750000 0.250000 0.750000 Cs
0.250000 0.250000 0.750000 Cs
0.750000 0.750000 0.250000 Cs
0.000000 0.500000 0.500000 Ga
0.500000 0.000000 0.500000 Ga
0.500000 0.500000 1.000000 Ga
0.000000 0.000000 0.000000 Bi
0.500000 0.000000 1.000000 Au
0.500000 0.500000 0.500000 Au
0.000000 0.000000 0.500000 Au
0.000000 0.500000 1.000000 Au
0.247785 0.000000 1.000000 I
0.500000 0.000000 0.747785 I
0.752215 0.000000 1.000000 I
0.500000 0.747785 1.000000 I
0.500000 0.252215 1.000000 I
0.500000 0.000000 0.252215 I
0.247785 0.500000 0.500000 I
0.500000 0.500000 0.247785 I
0.752215 0.500000 0.500000 I
0.500000 0.247785 0.500000 I
0.500000 0.752215 0.500000 I
0.500000 0.500000 0.752215 I
0.747785 0.000000 0.500000 I
0.000000 0.000000 0.247785 I
0.252215 0.000000 0.500000 I
0.000000 0.747785 0.500000 I
0.000000 0.252215 0.500000 I
0.000000 0.000000 0.752215 I
0.747785 0.500000 1.000000 I
0.000000 0.500000 0.747785 I
0.252215 0.500000 1.000000 I
0.000000 0.247785 1.000000 I
0.000000 0.752215 1.000000 I
0.000000 0.500000 0.252215 I
