Cs8 Ga1 As3 Au4 I24
1.0
11.786344 0.000000 0.000000
-0.000000 11.786344 0.000000
0.000000 0.000000 11.786344
Cs Ga As Au I
8 1 3 4 24
direct
0.750000 0.750000 0.750000 Cs
0.250000 0.250000 0.250000 Cs
0.750000 0.250000 0.250000 Cs
0.250000 0.750000 0.750000 Cs
0.250000 0.750000 0.250000 Cs
0.750000 0.250000 0.750000 Cs
0.250000 0.250000 0.750000 Cs
0.750000 0.750000 0.250000 Cs
0.000000 0.000000 0.000000 Ga
1.000000 0.500000 0.500000 As
0.500000 0.000000 0.500000 As
0.500000 0.500000 0.000000 As
0.500000 0.000000 0.000000 Au
0.500000 0.500000 0.500000 Au
0.000000 0.000000 0.500000 Au
1.000000 0.500000 0.000000 Au
0.247724 0.000000 0.000000 I
0.500000 0.000000 0.747724 I
0.752276 0.000000 0.000000 I
0.500000 0.747724 0.000000 I
0.500000 0.252276 0.000000 I
0.500000 0.000000 0.252276 I
0.247724 0.500000 0.500000 I
0.500000 0.500000 0.247724 I
0.752276 0.500000 0.500000 I
0.500000 0.247724 0.500000 I
0.500000 0.752276 0.500000 I
0.500000 0.500000 0.752276 I
0.747724 0.000000 0.500000 I
0.000000 0.000000 0.247724 I
0.252276 0.000000 0.500000 I
1.000000 0.747724 0.500000 I
0.000000 0.252276 0.500000 I
0.000000 0.000000 0.752276 I
0.747724 0.500000 0.000000 I
1.000000 0.500000 0.747724 I
0.252276 0.500000 0.000000 I
1.000000 0.247724 0.000000 I
1.000000 0.752276 0.000000 I
1.000000 0.500000 0.252276 I
