Cs8 Tl2 Ag2 Bi4 Br24
1.0
11.801052 0.000000 0.000000
-0.000000 11.801052 0.000000
0.000000 0.000000 11.801052
Cs Tl Ag Bi Br
8 2 2 4 24
direct
0.750000 0.750000 0.750000 Cs
0.250000 0.250000 0.250000 Cs
0.750000 0.250000 0.250000 Cs
0.250000 0.750000 0.750000 Cs
0.250000 0.750000 0.250000 Cs
0.750000 0.250000 0.750000 Cs
0.250000 0.250000 0.750000 Cs
0.750000 0.750000 0.250000 Cs
0.500000 0.000000 1.000000 Tl
0.000000 0.500000 1.000000 Tl
0.500000 0.500000 0.500000 Ag
0.000000 0.000000 0.500000 Ag
0.000000 0.000000 0.000000 Bi
0.000000 0.500000 0.500000 Bi
0.500000 0.000000 0.500000 Bi
0.500000 0.500000 1.000000 Bi
0.237802 0.000000 1.000000 Br
0.500000 0.000000 0.737802 Br
0.762198 0.000000 0.000000 Br
0.500000 0.737802 1.000000 Br
0.500000 0.262198 0.000000 Br
0.500000 0.000000 0.262198 Br
0.237802 0.500000 0.500000 Br
0.500000 0.500000 0.237802 Br
0.762198 0.500000 0.500000 Br
0.500000 0.237802 0.500000 Br
0.500000 0.762198 0.500000 Br
0.500000 0.500000 0.762198 Br
0.737802 0.000000 0.500000 Br
0.000000 0.000000 0.237802 Br
0.262198 0.000000 0.500000 Br
1.000000 0.737802 0.500000 Br
1.000000 0.262198 0.500000 Br
0.000000 0.000000 0.762198 Br
0.737802 0.500000 1.000000 Br
0.000000 0.500000 0.737802 Br
0.262198 0.500000 1.000000 Br
0.000000 0.237802 1.000000 Br
1.000000 0.762198 0.000000 Br
0.000000 0.500000 0.262198 Br
