Cs8 In3 Ag4 Bi1 Br24
1.0
11.297915 0.000000 0.000000
-0.000000 11.297915 0.000000
0.000000 0.000000 11.297915
Cs In Ag Bi Br
8 3 4 1 24
direct
0.750000 0.750000 0.750000 Cs
0.250000 0.250000 0.250000 Cs
0.750000 0.250000 0.250000 Cs
0.250000 0.750000 0.750000 Cs
0.250000 0.750000 0.250000 Cs
0.750000 0.250000 0.750000 Cs
0.250000 0.250000 0.750000 Cs
0.750000 0.750000 0.250000 Cs
0.000000 0.000000 0.000000 In
0.500000 0.000000 0.500000 In
0.500000 0.500000 1.000000 In
0.500000 0.000000 1.000000 Ag
0.500000 0.500000 0.500000 Ag
0.000000 0.000000 0.500000 Ag
0.000000 0.500000 1.000000 Ag
0.000000 0.500000 0.500000 Bi
0.244005 0.000000 1.000000 Br
0.500000 0.000000 0.744005 Br
0.755995 0.000000 0.000000 Br
0.500000 0.744005 1.000000 Br
0.500000 0.255995 1.000000 Br
0.500000 0.000000 0.255995 Br
0.244005 0.500000 0.500000 Br
0.500000 0.500000 0.244005 Br
0.755995 0.500000 0.500000 Br
0.500000 0.244005 0.500000 Br
0.500000 0.755995 0.500000 Br
0.500000 0.500000 0.755995 Br
0.744005 0.000000 0.500000 Br
0.000000 0.000000 0.244005 Br
0.255995 0.000000 0.500000 Br
0.000000 0.744005 0.500000 Br
0.000000 0.255995 0.500000 Br
0.000000 0.000000 0.755995 Br
0.744005 0.500000 1.000000 Br
0.000000 0.500000 0.744005 Br
0.255995 0.500000 1.000000 Br
0.000000 0.244005 0.000000 Br
0.000000 0.755995 0.000000 Br
0.000000 0.500000 0.255995 Br
